%BLOCK lattice_cart
11.4297   0   0
0   11.4297   0
0   0   11.4297
%ENDBLOCK lattice_cart

%BLOCK positions_frac
H   0.7276041736316551   0.15670483444106284   0.44051056708254493   
H   0.6826937291860294   0.24682275066879175   0.5258794503358202   
O   0.6666666666666666   0.16666666666666666   0.5   
H   0.11062078141192518   0.8956425338984234   -0.018111674582743202   
H   0.23143982020685305   0.8791826461190333   0.03246366557827306   
O   0.16666666666666666   0.8333333333333333   0.0   
H   0.11442696392790097   0.17701137845401083   0.2661350381091116   
H   0.13921067977326393   0.2296445962265494   0.38463206292090907   
O   0.16666666666666666   0.16666666666666666   0.3333333333333333   
H   0.6423274727770423   0.39945995098019427   -0.04885165877049217   
H   0.6617840573716521   0.36857879352865763   0.07800979520118947   
O   0.6666666666666666   0.3333333333333333   0.0   
H   0.3696070584611006   0.5605011675642021   0.1179282211235125   
H   0.3660083614727265   0.5197525073895037   0.2434376994404736   
O   0.3333333333333333   0.5   0.16666666666666666   
H   0.9053049687617258   0.14134608594538708   0.3724557357511193   
H   0.7927091298702148   0.20524770113177784   0.39823932964976416   
O   0.8333333333333333   0.16666666666666666   0.3333333333333333   
H   0.38683667760194185   -0.038367059233249484   0.7215936309292813   
H   0.35894012208620746   -0.03481954853390744   0.5926159955360143   
O   0.3333333333333333   0.0   0.6666666666666666   
H   0.8971777432512814   0.8501515659473666   0.27862822516957286   
H   0.8702328575618326   0.7740161583217009   0.38304760035588187   
O   0.8333333333333333   0.8333333333333333   0.3333333333333333   
H   0.4171400936431772   0.6718986828705992   0.3506729820624639   
H   0.303775864223787   0.6348698763090836   0.40727202839913496   
O   0.3333333333333333   0.6666666666666666   0.3333333333333333   
H   0.6330642106618947   -0.05332815977984331   0.05812566395476565   
H   0.7498488088242204   -0.019729231316463328   0.006564993753345022   
O   0.6666666666666666   0.0   0.0   
H   0.5436827870265363   0.004758874302811995   0.5736259310175688   
H   0.4797402564657173   -0.08330650545110017   0.4989139858700833   
O   0.5   0.0   0.5   
H   0.01579905813010075   0.5890383909904823   0.699466835309274   
H   0.026790599400821475   0.6555635451548372   0.5859784087744694   
O   0.0   0.6666666666666666   0.6666666666666666   
H   0.8656185380887759   0.05863586518656186   0.22024941904989137   
H   0.7752621919780264   -0.03755848078983538   0.21734914438521366   
O   0.8333333333333333   0.0   0.16666666666666666   
H   0.4511262917088395   0.2994876271542389   0.8951187628159258   
H   0.44252090918702147   0.3822122335520591   0.7926072026803889   
O   0.5   0.3333333333333333   0.8333333333333333   
H   0.6377054355375005   -0.00930688557957766   0.5865028378064435   
H   0.5928495478133414   0.009718954624382565   0.7091894296347844   
O   0.6666666666666666   0.0   0.6666666666666666   
H   0.6180867871146203   0.643660123621987   0.06680048476681476   
H   0.6477882551671279   0.7501319366642292   -0.005363279661509078   
O   0.6666666666666666   0.6666666666666666   0.0   
H   0.8423342698638826   0.42204109486466757   0.701206538364644   
H   0.794854476386812   0.4802230318394368   0.5926405929918817   
O   0.8333333333333333   0.5   0.6666666666666666   
H   0.16958049895604005   0.9190083677138481   0.33162788602354115   
H   0.18573750753232884   0.8151701185832807   0.2517366964917359   
O   0.16666666666666666   0.8333333333333333   0.3333333333333333   
H   0.5515661942275788   -0.06836954062051175   0.16240708764248096   
H   0.4435454137333613   -0.02633759923938185   0.22558034114897882   
O   0.5   0.0   0.16666666666666666   
H   0.7501422109620876   0.16570657733762983   0.1862248418960424   
H   0.662815742218144   0.2363932343400904   0.1169174292190966   
O   0.6666666666666666   0.16666666666666666   0.16666666666666666   
H   0.7294363900599864   0.8847413311173135   0.4722729360694664   
H   0.6778429906686417   0.8389546011465975   0.5848239448222842   
O   0.6666666666666666   0.8333333333333333   0.5   
H   0.15908303566433013   0.49961991904567427   -0.08540465189044467   
H   0.25144504677904506   0.5097051106866719   0.008369443071077277   
O   0.16666666666666666   0.5   0.0   
H   0.05440087747736597   0.7721680239141088   0.858847249900231   
H   -0.021235312954453335   0.8042467216422895   0.7555217597128213   
O   0.0   0.8333333333333333   0.8333333333333333   
H   0.7644290285614828   0.18076355046163708   -0.04904166734949515   
H   0.7992948865945643   0.11751119715283506   0.06145514173546623   
O   0.8333333333333333   0.16666666666666666   0.0   
H   -0.004675725669552981   0.07902087435848229   0.6996128271459018   
H   0.03178720680179466   -0.04323000920290234   0.7335422995481309   
O   0.0   0.0   0.6666666666666666   
H   0.7103299886325456   0.5545615868874744   0.5496805599451542   
H   0.5861365400849362   0.5240913773769351   0.5169149263685079   
O   0.6666666666666666   0.5   0.5   
H   0.46842668218375044   0.42242363084191387   -0.018347834628694576   
H   0.47902740321721266   0.5064818688759166   0.0828839311646203   
O   0.5   0.5   0.0   
H   0.023478603295118913   0.11165502441940896   0.561433581124737   
H   0.0761525617806493   0.19936147976516136   0.47801257141140957   
O   0.0   0.16666666666666666   0.5   
H   0.32278523673720316   0.7813930877564742   0.7659348242040227   
H   0.31273834425255986   0.7803906441595998   0.897555826068011   
O   0.3333333333333333   0.8333333333333333   0.8333333333333333   
H   0.09062983989854946   0.6574011261923908   0.5385248130429516   
H   0.1480159201786317   0.7274432458762121   0.44246768247094187   
O   0.16666666666666666   0.6666666666666666   0.5   
H   0.2670149287415497   0.6157417332570004   0.6476895526905894   
H   0.3987448598441633   0.6183284705313311   0.6395306854029589   
O   0.3333333333333333   0.6666666666666666   0.6666666666666666   
H   0.08993108362651879   -0.02813903040682914   0.14075420347823955   
H   0.2163364727758238   -0.028168777204235555   0.10270542186064095   
O   0.16666666666666666   0.0   0.16666666666666666   
H   0.14256915544450732   0.9044488326816568   0.7080611855136828   
H   0.2428315624124617   0.8187158824273568   0.7032296160865782   
O   0.16666666666666666   0.8333333333333333   0.6666666666666666   
H   0.33448699422843636   0.2513181486201483   -0.02497576882181461   
H   0.4024641097774531   0.3633545836549358   -0.04088117858624295   
O   0.3333333333333333   0.3333333333333333   0.0   
H   0.3635614539678952   0.3491050744435062   0.5879956847832839   
H   0.3682053492641859   0.39831836850889474   0.7103987852225849   
O   0.3333333333333333   0.3333333333333333   0.6666666666666666   
H   -0.056867055266308135   0.31197662758717837   0.27282184987564334   
H   0.06315391969667682   0.3655487060650593   0.28511131894217434   
O   0.0   0.3333333333333333   0.3333333333333333   
H   -0.019501507266552365   0.2158058180237253   0.9008362629251677   
H   0.08311973806390506   0.18532053252230798   0.8235992222764863   
O   0.0   0.16666666666666666   0.8333333333333333   
H   0.29238674618543553   0.5516955147206335   0.8881289649470655   
H   0.380535855076467   0.556977029579504   0.7900072381178077   
O   0.3333333333333333   0.5   0.8333333333333333   
H   0.5220264792946209   0.35731147888098014   0.24598560029048044   
H   0.45761205010427564   0.4030107177905356   0.14021039549931835   
O   0.5   0.3333333333333333   0.16666666666666666   
H   0.638741806299715   0.6598990282112674   0.7474504009729164   
H   0.6126933216823159   0.7258713736772234   0.636116851867983   
O   0.6666666666666666   0.6666666666666666   0.6666666666666666   
H   0.4571576127775971   -0.06174417078570186   0.8746104179725279   
H   0.5002920494523329   0.06166924138168091   0.8929020319909743   
O   0.5   0.0   0.8333333333333333   
H   0.8192513350654601   0.5456725438112803   0.07118515682240065   
H   0.8127087273653825   0.5575433922872004   -0.06012482114724012   
O   0.8333333333333333   0.5   0.0   
H   0.4515390309703937   0.6687418611837053   0.7626308684988773   
H   0.5209683265249965   0.583564525343966   0.8357774846303077   
O   0.5   0.6666666666666666   0.8333333333333333   
H   0.30043912541607193   0.77637786388357   0.44499403604614723   
H   0.35882950689854176   0.8947661581718278   0.4458930350958854   
O   0.3333333333333333   0.8333333333333333   0.5   
H   0.5005343948385034   0.8534715065302193   0.583325327058473   
H   0.424950582542634   0.7922976093300526   0.6726050822866831   
O   0.5   0.8333333333333333   0.6666666666666666   
H   0.7749161448188622   0.8246122500355354   0.06215291849476658   
H   0.9014006339642666   0.7965018729833644   0.03690388324480616   
O   0.8333333333333333   0.8333333333333333   0.0   
H   -0.02602392474198129   0.37336103920445496   0.5954476482168303   
H   -0.0391492179542065   0.2576012168035916   0.6575235958073148   
O   0.0   0.3333333333333333   0.6666666666666666   
H   0.8740013273146607   0.3702530047015688   0.43416184528075163   
H   0.8838265174510531   0.3569904900319625   0.565133614822379   
O   0.8333333333333333   0.3333333333333333   0.5   
H   0.021513120576718   0.71605801200284   -0.06670300693502447   
H   -0.02854672865560087   0.5967369985695169   -0.04057753427853222   
O   0.0   0.6666666666666666   0.0   
H   0.6049867347872743   0.46631256287076434   0.21578237767909925   
H   0.6459493020572751   0.4669934598577576   0.09029278633628442   
O   0.6666666666666666   0.5   0.16666666666666666   
H   0.9134117752540857   0.6929741204869463   0.4842846731412295   
H   0.8144121142948656   0.6281646671298499   0.4257625836454098   
O   0.8333333333333333   0.6666666666666666   0.5   
H   0.324507832043808   0.6483403327003202   -0.08329385628953678   
H   0.27681322603904707   0.6120968048244076   0.03433974570666784   
O   0.3333333333333333   0.6666666666666666   0.0   
H   0.10387271064271279   0.16335171347055857   0.058288426444782646   
H   0.23284228878990454   0.13787454019368994   0.04629698667306562   
O   0.16666666666666666   0.16666666666666666   0.0   
H   -0.012282550760877618   0.38575089884679975   -0.06673191333752833   
H   0.07775696484211846   0.3022122960361227   -0.018356087309845115   
O   0.0   0.3333333333333333   0.0   
H   0.6584959310236753   0.24533490546018463   0.8664416067618564   
H   0.7519721422889785   0.15804094536297583   0.8337614058525255   
O   0.6666666666666666   0.16666666666666666   0.8333333333333333   
H   0.6951765361868427   0.04989496580042146   0.39696736678208444   
H   0.6980531640712263   -0.07604220800148803   0.35750109839697697   
O   0.6666666666666666   0.0   0.3333333333333333   
H   0.8012776285908658   0.6539043956914433   0.24515976647969612   
H   0.7761985125454801   0.6240037968164495   0.11905256922774818   
O   0.8333333333333333   0.6666666666666666   0.16666666666666666   
H   0.5439963014249523   0.430197584842356   0.6433523194889279   
H   0.5166543604891723   0.5520643286968134   0.6006095062729111   
O   0.5   0.5   0.6666666666666666   
H   0.4233841613084374   0.5099999901997315   0.37050353568458794   
H   0.48353475963974757   0.5299700519166177   0.2547057152005561   
O   0.5   0.5   0.3333333333333333   
H   0.5130127921237964   0.15096580097012946   -0.08328121362445219   
H   0.5668174814955513   0.12551319505011602   0.03454600448296289   
O   0.5   0.16666666666666666   0.0   
H   0.7347468790490465   0.5179945833900905   0.7844161570470162   
H   0.7043539574644466   0.48895387864911255   0.9095518468367105   
O   0.6666666666666666   0.5   0.8333333333333333   
H   0.6235467711074371   0.7217938074919417   0.2838027020368224   
H   0.6906490600765122   0.7183196029118578   0.39743036500271006   
O   0.6666666666666666   0.6666666666666666   0.3333333333333333   
H   0.8820654759297742   0.3734393463132028   0.22470369352072042   
H   0.7709650053320554   0.302582474584406   0.2168282738355764   
O   0.8333333333333333   0.3333333333333333   0.16666666666666666   
H   0.4949451559717419   0.745838906195265   0.5325240760839675   
H   0.45713694619027645   0.6769464452359772   0.4264561677915125   
O   0.5   0.6666666666666666   0.5   
H   0.11498615604482727   0.5662917791134576   0.6497511315265073   
H   0.1807565517078516   0.4702462776203131   0.587497217828632   
O   0.16666666666666666   0.5   0.6666666666666666   
H   -0.013627824070616686   0.7576803078893651   0.46201957560118495   
H   0.04254365484885609   0.8084433812648265   0.5701579518185096   
O   0.0   0.8333333333333333   0.5   
H   0.8722405763549501   0.24229452999402423   0.6775415558263244   
H   0.8049429989510578   0.17484498111207497   0.5861762040531737   
O   0.8333333333333333   0.16666666666666666   0.6666666666666666   
H   0.7901330422797797   0.5734646250863226   0.32393683403552076   
H   0.7687635340146585   0.4435924144630121   0.334065313574144   
O   0.8333333333333333   0.5   0.3333333333333333   
H   0.8440392480674656   0.06459625757767191   0.8886896101400698   
H   0.775087904175314   -0.04713845890180477   0.8750112190738613   
O   0.8333333333333333   0.0   0.8333333333333333   
H   0.8820632480421714   0.7825124639401946   0.7155976908929627   
H   0.8737943658466647   0.8264380609217689   0.591387382985398   
O   0.8333333333333333   0.8333333333333333   0.6666666666666666   
H   0.19135369406302388   0.5447528417514101   0.40217622925400354   
H   0.18129644363459793   0.4199516031762104   0.360348778490672   
O   0.16666666666666666   0.5   0.3333333333333333   
H   -0.02575821271436162   -0.07041165311461473   -0.04159716419022262   
H   0.041123585864123395   0.041402827974154566   -0.06281932032948231   
O   0.0   0.0   0.0   
H   -0.08400954276855091   0.6760058249037665   0.31895323136982473   
H   0.014522646154124333   0.7327066281300648   0.38605360195778615   
O   0.0   0.6666666666666666   0.3333333333333333   
H   0.9095395680115511   0.6513731674655914   0.7971348642552829   
H   0.8444998696263414   0.7472525503489701   0.8604042458336286   
O   0.8333333333333333   0.6666666666666666   0.8333333333333333   
H   0.1512424968739613   -0.08419338627399042   0.4949821140742427   
H   0.1404853187439558   0.01619701384178836   0.580023773022761   
O   0.16666666666666666   0.0   0.5   
H   0.08841524266386101   0.6504885758083242   0.19775676964095454   
H   0.14792487332529342   0.7235398053287871   0.10530053784703236   
O   0.16666666666666666   0.6666666666666666   0.16666666666666666   
H   0.3670749951845482   0.2805978571283212   0.39191729265829134   
H   0.3732514863595413   0.306035369809085   0.2625309835725766   
O   0.3333333333333333   0.3333333333333333   0.3333333333333333   
H   0.550286402015123   0.2240923944639269   0.3723868100616333   
H   0.4225326303893728   0.19439787223975877   0.3574455163185557   
O   0.5   0.16666666666666666   0.3333333333333333   
H   0.631700303508625   0.36224539920370186   0.5939132723826409   
H   0.6658550585894151   0.4047274314851191   0.7141412338227933   
O   0.6666666666666666   0.3333333333333333   0.6666666666666666   
H   0.7068377073320301   0.3763435616051233   0.2709793579900586   
H   0.6892324699586481   0.2528588984191382   0.31419540418026   
O   0.6666666666666666   0.3333333333333333   0.3333333333333333   
H   0.30633478503350564   0.4388952407904211   0.44625153698122405   
H   0.4159520252925411   0.47857956905442917   0.5081809145145906   
O   0.3333333333333333   0.5   0.5   
H   0.528479585630197   0.8100152206404382   0.2558943941101415   
H   0.526224577209464   0.91492268287453   0.33599041384937633   
O   0.5   0.8333333333333333   0.3333333333333333   
H   0.0816722792226425   0.01027641193928846   0.8286471892992007   
H   0.17645111432706656   -0.07217969536846247   0.7881009705193444   
O   0.16666666666666666   0.0   0.8333333333333333   
H   0.1961559135356067   0.7302579014923368   0.882710956379493   
H   0.19518199343174183   0.598392585364794   0.876659266065425   
O   0.16666666666666666   0.6666666666666666   0.8333333333333333   
H   0.1232695086225533   0.3665620773644087   0.2327283630500551   
H   0.14254992457353086   0.38620441655042764   0.10362190641251282   
O   0.16666666666666666   0.3333333333333333   0.16666666666666666   
H   0.4805833662092627   0.0982330435715625   0.7145356968172043   
H   0.5664390000597025   0.19842894118204626   0.7105828103260999   
O   0.5   0.16666666666666666   0.6666666666666666   
H   0.4470076476156989   0.2747199800456081   0.4667149299176668   
H   0.45172923040460417   0.36389560128662   0.5639334893890454   
O   0.5   0.3333333333333333   0.5   
H   0.04599582014894459   0.5363538268832652   0.4374348796452288   
H   0.019327450010112927   0.5514103334040229   0.5658410037942411   
O   0.0   0.5   0.5   
H   0.28605259371964603   0.11844407554255672   0.11383936451996325   
H   0.30722093816190893   0.1371019132038324   0.24279602142770926   
O   0.3333333333333333   0.16666666666666666   0.16666666666666666   
H   0.6342448118985521   0.898825269404335   0.8781801852664018   
H   0.7503806703719883   0.8432768243589555   0.8489763207426557   
O   0.6666666666666666   0.8333333333333333   0.8333333333333333   
H   0.22331778710002495   0.3976814714549313   0.4987437519479183   
H   0.18425859422550586   0.2952291198886029   0.42523233661694076   
O   0.16666666666666666   0.3333333333333333   0.5   
H   0.1837734570031401   0.0837615352276011   0.6802941165636458   
H   0.2314760242013185   0.18792023433632843   0.6147085727592083   
O   0.16666666666666666   0.16666666666666666   0.6666666666666666   
H   0.30188983035095623   0.07966325299443536   0.33741778284107676   
H   0.41454182836998654   0.013742023923808126   0.357164984505647   
O   0.3333333333333333   0.0   0.3333333333333333   
H   0.8251330343942325   0.4182989044374376   0.8414090567995159   
H   0.8824575026485216   0.31558855056628377   0.901330018244308   
O   0.8333333333333333   0.3333333333333333   0.8333333333333333   
H   0.0434122457088989   0.2330050375902207   0.13401382680611817   
H   -0.0008239711633554946   0.18760710916621895   0.24980768797795666   
O   0.0   0.16666666666666666   0.16666666666666666   
H   0.3087366783366843   0.2404087695247892   0.46382380182665167   
H   0.28979764802551883   0.11027705166345204   0.4522876754935619   
O   0.3333333333333333   0.16666666666666666   0.5   
%ENDBLOCK positions_frac

