%BLOCK lattice_cart
11.72154   0   0
0   11.72154   0
0   0   11.72154
%ENDBLOCK lattice_cart

%BLOCK positions_frac
H   0.12307627047441339   0.24769093204847117   0.3468354790443902   
H   0.15167193271298735   0.15398246162888307   0.2424398184058142   
H   0.13915114156757283   0.08445194072839052   0.36696363034475715   
H   0.25776105020270246   0.17751333660110255   0.3485492854620802   
C   0.16666666666666669   0.16666666666666669   0.33333333333333337   
H   0.5375756898288668   0.10128368174739583   0.3877437641034762   
H   0.4778304970868127   0.1161315790795454   0.25848628781512023   
H   0.5463278007905633   0.23684096738664495   0.29362609782098326   
H   0.42239716059459775   0.19917385371360866   0.3729369223900814   
C   0.5   0.16666666666666669   0.33333333333333337   
H   -0.00896254595996904   0.38042808381225063   -0.07968136172848249   
H   0.05407481695110786   0.3914884112063401   0.048386601957050135   
H   0.04673191381987925   0.2536236293580286   0.010481101209413913   
H   -0.082956914384059   0.32635927476547627   0.04143519063102412   
C   0.0   0.33333333333333337   0.0   
H   0.3931321923765923   0.2225715130189772   0.7892186331630917   
H   0.3528344034118341   0.08523928051881562   0.7928777872292023   
H   0.24082452261920764   0.16876094013910836   0.8241085775890337   
H   0.35544617190232053   0.1625822068478147   0.9235647121218201   
C   0.33333333333333337   0.16666666666666669   0.8333333333333333   
H   0.12282470086492611   0.7089007141518874   0.9036293462168279   
H   0.09602007935901953   0.653729601027956   0.774265116887397   
H   0.20274131280220642   0.5810013488521701   0.8360601244141079   
H   0.2283555375811122   0.7251395674724127   0.7956137729392411   
C   0.16666666666666669   0.6666666666666667   0.8333333333333333   
H   0.33304602250946125   0.254091996263716   0.5316874006033802   
H   0.42450216252386075   0.1483640214355213   0.5007873507684469   
H   0.3112972719734407   0.14067230160120786   0.4134779383957594   
H   0.2900502514058673   0.11140147923725924   0.560989310841442   
C   0.33333333333333337   0.16666666666666669   0.5   
H   0.23116214937088875   0.06272897294484185   0.4764889212562248   
H   0.1515189633601579   -0.04076181056479602   0.4178027735037308   
H   0.07950146274923521   0.019486599442182506   0.5258816890459999   
H   0.20348162766420633   -0.06176801802351882   0.5589638258244595   
C   0.16666666666666669   0.0   0.5   
H   0.5192800592631959   0.8078979543349276   0.08734233205998351   
H   0.4929109564297796   0.9255052106783686   0.010072370506123139   
H   0.42090785220461036   0.8148234286511394   -0.045267844497276985   
H   0.5724841868358865   0.8135797533150005   -0.05480146799914156   
C   0.5   0.8333333333333333   0.0   
H   0.8649797624137583   0.0900567436636478   0.3754852654787339   
H   0.7528064078699006   0.1353753793140906   0.2989293834018707   
H   0.8704621121390207   0.20565535808237084   0.25751316526605295   
H   0.8164721638833391   0.2323756424625301   0.39693674223803377   
C   0.8333333333333333   0.16666666666666669   0.33333333333333337   
H   0.8513130911764047   0.7434062793505789   0.3179315337778078   
H   0.7739912128331475   0.8270609965577719   0.4046532652288187   
H   0.7858111518698884   0.8892951099287748   0.2762607130246545   
H   0.9110004210013154   0.8761791019365791   0.36125153108376845   
C   0.8333333333333333   0.8333333333333333   0.33333333333333337   
H   0.11521532743734358   0.2676854400121282   0.49423767633405963   
H   0.1662194620807953   0.34615019120157964   0.5826173029242533   
O   0.16666666666666669   0.33333333333333337   0.5   
H   0.7286052789848672   0.35688336022245304   0.05098132126231794   
H   0.7002752328592639   0.265095827596866   -0.03470155139727438   
O   0.6666666666666667   0.33333333333333337   0.0   
H   0.8173735026026617   0.8805564275245679   0.7337885986865987   
H   0.7628401587141551   0.8441247791085147   0.6230278352177652   
O   0.8333333333333333   0.8333333333333333   0.6666666666666667   
H   0.6573364127548458   0.5760477684909702   0.20012968878839119   
H   0.5908924918381289   0.46754076699232233   0.1806224253935059   
O   0.6666666666666667   0.5   0.16666666666666669   
H   0.07423164418803854   -0.037685104969688445   0.6743858923142481   
H   -0.01315759055638859   -0.008392903550933252   0.5845294183516091   
O   0.0   0.0   0.6666666666666667   
H   -0.036328817925575296   0.6991776928732184   -0.06792157789069374   
H   0.06737270053880987   0.630812272436006   -0.03413901311541514   
O   0.0   0.6666666666666667   0.0   
H   0.5452991954833095   -0.0022721928744160965   0.5702346823737435   
H   0.5582800167086498   -0.019594557415868786   0.44334681339809745   
O   0.5   0.0   0.5   
H   0.8480494796552416   0.5371467245995881   0.2598918840761951   
H   0.8651144158402017   0.5566443708250145   0.38597807313290067   
O   0.8333333333333333   0.5   0.33333333333333337   
H   0.27273501199367556   0.8487323748468178   0.11116167994190623   
H   0.3669178653679903   0.7640409969862448   0.13409763365048186   
O   0.33333333333333337   0.8333333333333333   0.16666666666666669   
H   0.8433663260658196   -0.07009705362212394   0.21111700648945353   
H   0.8058117581103174   -0.031403769946197986   0.0942342380835768   
O   0.8333333333333333   0.0   0.16666666666666669   
H   -0.027867369577232657   -0.03717349232767775   0.06950994001611774   
H   -0.03512638130224833   -0.048280538052516815   -0.05852535828171245   
O   0.0   0.0   0.0   
H   0.7501712888659281   0.3337933577433812   0.3292276021030829   
H   0.6494175123323022   0.263934981266104   0.2900156004155498   
O   0.6666666666666667   0.33333333333333337   0.33333333333333337   
H   0.3558467559945459   0.7770872130986952   0.442383940271288   
H   0.38573184696132407   0.8959058176822384   0.48185694204337187   
O   0.33333333333333337   0.8333333333333333   0.5   
H   0.4915045771753133   0.7534739951828477   0.31008673183482444   
H   0.5794882467534113   0.8335424641077263   0.3592498429830195   
O   0.5   0.8333333333333333   0.33333333333333337   
H   0.5623323320300794   -0.026188239171938323   0.8825161259827913   
H   0.46226777273500524   -0.07260780956006178   0.8161730420611301   
O   0.5   0.0   0.8333333333333333   
H   0.8016697685178392   0.6400917722093497   0.42732755523727206   
H   0.8091318672265039   0.6049373572095853   0.5509300694311929   
O   0.8333333333333333   0.6666666666666667   0.5   
H   0.4830205090736977   0.49864277180064126   0.2514801391407256   
H   0.4348459110115853   0.5438971799214187   0.3619353063958792   
O   0.5   0.5   0.33333333333333337   
H   0.22811554477091017   0.1923756956085594   0.050528920339039676   
H   0.20519768281904965   0.10483558018588754   -0.04101668098353991   
O   0.16666666666666669   0.16666666666666669   0.0   
H   0.41640316995968046   0.5011938844698872   -0.00048500218222381276   
H   0.5154726317420655   0.530206565383588   0.07640845277019892   
O   0.5   0.5   0.0   
H   0.2452349440063805   0.8544108534940537   0.019309441208344543   
H   0.17728881505800342   0.7537798872402015   -0.023420285188141533   
O   0.16666666666666669   0.8333333333333333   0.0   
H   0.5352019668117997   0.2668337485784667   0.8697849086085602   
H   0.5240710030455913   0.32208781018854554   0.7540602887241256   
O   0.5   0.33333333333333337   0.8333333333333333   
H   0.09355985401303463   0.03676564282436533   0.8504731125434694   
H   0.22006008825893003   0.058979766800450105   0.8590358666495187   
O   0.16666666666666669   0.0   0.8333333333333333   
H   0.04916125083218762   0.9004227197089125   0.49149845705784856   
H   0.0471838194634703   0.785806034883846   0.5500493123126211   
O   0.0   0.8333333333333333   0.5   
H   0.6310835429133866   0.4420773244823508   0.8820046343727564   
H   0.6264541058962547   0.5686476046848059   0.8590344404565452   
O   0.6666666666666667   0.5   0.8333333333333333   
H   0.8556353042779853   0.19844838251097438   0.0740448189275242   
H   0.8127995427955235   0.08871001553422143   0.022163360990559287   
O   0.8333333333333333   0.16666666666666669   0.0   
H   0.3193650283395571   0.24754841673441366   0.1507569356314283   
H   0.2780472162304753   0.13097065885723005   0.11509796625457587   
O   0.33333333333333337   0.16666666666666669   0.16666666666666669   
H   0.6397034621221563   0.2587416072702385   0.6402252108887905   
H   0.6382604693242414   0.33308149368534595   0.74529945314514   
O   0.6666666666666667   0.33333333333333337   0.6666666666666667   
H   0.7586539388406516   0.1327033791136095   0.6505553750726002   
H   0.829621220795371   0.23543207548441222   0.6192574971878824   
O   0.8333333333333333   0.16666666666666669   0.6666666666666667   
H   0.6494715436751216   0.8972565862088734   0.21773755922935523   
H   0.7491464341959434   0.8430027555970147   0.15698778235919822   
O   0.6666666666666667   0.8333333333333333   0.16666666666666669   
H   0.002115024045837413   0.25243682718462934   0.35434220160967056   
H   0.01822036448661684   0.3286551188061518   0.25187031591532477   
O   0.0   0.33333333333333337   0.33333333333333337   
H   0.22126489201887345   0.06117138947723235   0.15032085748361718   
H   0.10107129924520399   0.02529433612489777   0.12141697149776776   
O   0.16666666666666669   0.0   0.16666666666666669   
H   0.011138492201526923   0.5821638016267451   0.5107300640143324   
H   0.03343039032732088   0.4896290301927102   0.4240727811134009   
O   0.0   0.5   0.5   
H   0.435123501076174   0.6578412673184796   0.8853260519943736   
H   0.4779640370333207   0.7363755597898448   0.7927725501097965   
O   0.5   0.6666666666666667   0.8333333333333333   
H   0.3500616047194161   0.5775660925681161   0.8069940698625702   
H   0.40508022448188324   0.4808898345343946   0.8717686786086081   
O   0.33333333333333337   0.5   0.8333333333333333   
H   0.7968617817230493   0.5102355644153876   -0.07453287680125538   
H   0.8324212545648689   0.4166409612836097   0.0063662670878415675   
O   0.8333333333333333   0.5   0.0   
H   0.4830769610094721   0.08606149169123616   0.6810370215175248   
H   0.44568505469122066   0.183187101460614   0.6052903476962567   
O   0.5   0.16666666666666669   0.6666666666666667   
H   0.3915396174410254   0.03100072408297512   -0.051391382319802933   
H   0.35424920739254745   0.03771227471353753   0.0716268184991072   
O   0.33333333333333337   0.0   0.0   
H   0.16722486940318698   0.4164235551978673   0.824070827179935   
H   0.20308306108888016   0.3258577831511151   0.9082202677531184   
O   0.16666666666666669   0.33333333333333337   0.8333333333333333   
H   0.038849231637906774   0.1664274822218813   0.4259677734227863   
H   0.04307095341969834   0.22619309928327844   0.5398947035518805   
O   0.0   0.16666666666666669   0.5   
H   0.6540765041099325   0.07944088568378646   0.6894860459002228   
H   0.7171112505150704   -0.025942775776363797   0.7280865895371241   
O   0.6666666666666667   0.0   0.6666666666666667   
H   0.6775270622426707   -0.06312709848789501   0.2796014822162669   
H   0.7209865115314714   0.05578021166555005   0.30287002720211637   
O   0.6666666666666667   0.0   0.33333333333333337   
H   0.15310978996827096   0.43988494938880895   -0.05650205628322483   
H   0.20143349992298443   0.5588941379996825   -0.048091978485356845   
O   0.16666666666666669   0.5   0.0   
H   0.9077219401545055   0.6285651549366849   0.8355014106219427   
H   0.8569883493159196   0.7468553804265551   0.8338819538146826   
O   0.8333333333333333   0.6666666666666667   0.8333333333333333   
H   0.7192277516626413   0.6161099169389362   0.3742165570448734   
H   0.6089788541226152   0.6800256191670453   0.39235659359578645   
O   0.6666666666666667   0.6666666666666667   0.33333333333333337   
H   0.45498191527357457   0.7277211804486832   0.4648459252085878   
H   0.46427243585205663   0.5993383500285825   0.4656411653461481   
O   0.5   0.6666666666666667   0.5   
H   0.46458597733360074   0.208641995018713   -0.06303974451372664   
H   0.4773677273431715   0.08842052678611027   -0.018852384682412154   
O   0.5   0.16666666666666669   0.0   
H   0.06412774401601527   0.44974094792901714   0.18542168499182232   
H   0.016731264228368764   0.5654738794426375   0.21589396080402248   
O   0.0   0.5   0.16666666666666669   
H   0.15699870155163978   0.45325246944515735   0.5980278335064727   
H   0.24923655748430526   0.4937030069560135   0.6781841138231116   
O   0.16666666666666669   0.5   0.6666666666666667   
H   -0.06985458493581809   0.45452028303386316   0.8398158396510266   
H   -0.02248103710834612   0.5545484944322256   0.7740952095805939   
O   0.0   0.5   0.8333333333333333   
H   0.23841329377817716   0.37556578806654234   0.15898995868970212   
H   0.1293064908836112   0.3530363980784737   0.09451337786329835   
O   0.16666666666666669   0.33333333333333337   0.16666666666666669   
H   0.7340996032867906   0.15978905507027058   0.8822780786851047   
H   0.7017814075170712   0.19314353196383643   0.7622276292085676   
O   0.6666666666666667   0.16666666666666669   0.8333333333333333   
H   0.59642084985196   0.529068938899268   0.4652061414709498   
H   0.668423579754646   0.5444479383389019   0.5707911337234878   
O   0.6666666666666667   0.5   0.5   
H   0.6896133699689571   0.8191263815395946   0.9124642495944338   
H   0.69895694015258   0.7661081239853111   0.7955417992766983   
O   0.6666666666666667   0.8333333333333333   0.8333333333333333   
H   0.82857909898059   0.44172606778094853   0.6069034952357356   
H   0.8309922405036099   0.5696988305981917   0.6205506946218159   
O   0.8333333333333333   0.5   0.6666666666666667   
H   0.09464545249181869   0.6925354783757476   0.20033920547167908   
H   0.1561933020056803   0.6907773851176563   0.08729997044911342   
O   0.16666666666666669   0.6666666666666667   0.16666666666666669   
H   0.23735276319679482   0.1706427070623771   0.6221946817757339   
H   0.12208571095483163   0.2273546983198782   0.6303404807684407   
O   0.16666666666666669   0.16666666666666669   0.6666666666666667   
H   0.4891516210228865   0.32324924960883644   0.4177156484558544   
H   0.4314813344579965   0.37714044261010604   0.519396397325025   
O   0.5   0.33333333333333337   0.5   
H   0.309581663408729   0.4742223891674392   0.42409569488104143   
H   0.3044948906521652   0.4374072212769977   0.5473347531470539   
O   0.33333333333333337   0.5   0.5   
H   0.008977257780686197   0.9164015690042149   0.1636388547008637   
H   -0.043982107471618966   0.8199580267487446   0.09683282117497484   
O   0.0   0.8333333333333333   0.16666666666666669   
H   0.4656375424379048   0.28866419720095543   0.22842409834508554   
H   0.5379067628892971   0.2728904448829323   0.12307968302405554   
O   0.5   0.33333333333333337   0.16666666666666669   
H   0.6923631038059114   0.08800045602371644   0.48810836422261   
H   0.6849565773280946   0.20032969188371788   0.4256873464256091   
O   0.6666666666666667   0.16666666666666669   0.5   
H   0.46907191593402914   0.47736644143525   0.5923614432786805   
H   0.46474362320603746   0.4426402591596122   0.7162341823005973   
O   0.5   0.5   0.6666666666666667   
H   0.7045091063929771   0.6152235261995629   0.053959648205642065   
H   0.6927756797608535   0.6347481924842704   -0.07272978084079143   
O   0.6666666666666667   0.6666666666666667   0.0   
H   0.783854127072715   0.3313150463372274   0.5673633820814752   
H   0.8576722255129171   0.4133120228995939   0.5010574132440071   
O   0.8333333333333333   0.33333333333333337   0.5   
H   0.37286952907671717   0.7191769643663611   0.3850019741289317   
H   0.253826553273859   0.6889277287130673   0.3464941699775191   
O   0.33333333333333337   0.6666666666666667   0.33333333333333337   
H   0.5776655389519881   0.6971332901093232   0.17213836615904085   
H   0.47420727622825576   0.6757399214272028   0.24567617260436497   
O   0.5   0.6666666666666667   0.16666666666666669   
H   0.03327882693652875   0.008264724314725122   0.257081745875993   
H   0.04761387886078291   0.05318742164026937   0.3768546763632212   
O   0.0   0.0   0.33333333333333337   
H   0.3242588679186346   0.5828940371715008   0.16063978862894593   
H   0.38822220404592633   0.48592333023721557   0.10519187654648786   
O   0.33333333333333337   0.5   0.16666666666666669   
H   0.2591460529471881   0.014884268523409783   0.702230645064264   
H   0.3117769098860343   -0.05652632900790419   0.6089589088079076   
O   0.33333333333333337   0.0   0.6666666666666667   
H   0.6870684561282443   0.14527393919679576   0.24487286065537556   
H   0.7382974013093667   0.15004500447439315   0.12688163454970955   
O   0.6666666666666667   0.16666666666666669   0.16666666666666669   
H   0.043175754692240116   0.6031353285385117   0.3663441476588815   
H   -0.07833769259493455   0.6400035026112377   0.34526531479028727   
O   0.0   0.6666666666666667   0.33333333333333337   
H   0.8383413103140799   0.0512117021525241   0.7674366542877566   
H   0.8055196784054948   0.05279469834997814   0.8918927988852337   
O   0.8333333333333333   0.0   0.8333333333333333   
H   0.24292640140493546   0.8284024856595518   0.36724837688189915   
H   0.16112564738872856   0.9156160783226809   0.3195878772690987   
O   0.16666666666666669   0.8333333333333333   0.33333333333333337   
H   -0.03249023429899381   0.21922377995792697   0.22298917635613622   
H   -0.04548067229780574   0.18614557702147402   0.09927103566017445   
O   0.0   0.16666666666666669   0.16666666666666669   
H   0.18482184199559093   0.9123608067149136   0.6870416179484227   
H   0.21542560791671453   0.7918813238151888   0.7204661753550954   
O   0.16666666666666669   0.8333333333333333   0.6666666666666667   
H   -0.000942877475125015   0.7570482404809286   0.867535470263665   
H   0.010524365801177438   0.8806985711524042   0.9014205021014656   
O   0.0   0.8333333333333333   0.8333333333333333   
H   0.10208359690272545   0.681216367854938   0.4489370596691476   
H   0.14644765412437885   0.5910469707325366   0.5293759033678761   
O   0.16666666666666669   0.6666666666666667   0.5   
H   0.3583905028341006   0.26271160749825967   0.03707830466350613   
H   0.2668642996602809   0.3057390650182998   -0.04255014099580434   
O   0.33333333333333337   0.33333333333333337   0.0   
H   0.27416493950955295   -0.030679918575139964   0.2828562657821069   
H   0.3596926895483118   0.06536113093643818   0.28835336576246984   
O   0.33333333333333337   0.0   0.33333333333333337   
H   0.7772961863214822   0.7753807706682858   -0.02216820279950988   
H   0.8181907867663829   0.8389323030773452   0.08203319694677057   
O   0.8333333333333333   0.8333333333333333   0.0   
H   0.8623986490329985   -0.054492207635996465   0.4436448998734939   
H   0.8698996492486819   0.07044221010720661   0.4737152105653221   
O   0.8333333333333333   0.0   0.5   
H   0.5256747170120779   0.8057590602034483   0.5920304894618923   
H   0.5240951956409257   0.9132972103376217   0.6627563595811774   
O   0.5   0.8333333333333333   0.6666666666666667   
H   0.033417575826215996   0.7042686327315332   0.7334457678435319   
H   0.027622432258533544   0.588498392257151   0.6774746587093938   
O   0.0   0.6666666666666667   0.6666666666666667   
H   0.29415912765095714   0.3535250141137777   0.5956190191584643   
H   0.36982822512862523   0.40616808130041887   0.685463287146299   
O   0.33333333333333337   0.33333333333333337   0.6666666666666667   
H   -0.03694078608575919   0.12108632672491254   0.7737690695991565   
H   0.019298267836989885   0.10706901033485493   0.8887028809049122   
O   0.0   0.16666666666666669   0.8333333333333333   
H   0.6990899951223033   0.861017773134364   0.428080669185571   
H   0.7075818573163103   0.7609279326186867   0.5085729634018262   
O   0.6666666666666667   0.8333333333333333   0.5   
H   0.27127810019701093   0.8838243987139532   0.8090456628571244   
H   0.29527651329269267   0.7900609280300409   0.8939078161433098   
O   0.33333333333333337   0.8333333333333333   0.8333333333333333   
H   0.8538231176075013   0.6211127046010299   0.09962119060336436   
H   0.9073751926882798   0.7005999996564424   0.1855458233083598   
O   0.8333333333333333   0.6666666666666667   0.16666666666666669   
H   0.22007572306133832   0.4373132528705775   0.3189133815512751   
H   0.18080634961970365   0.5480891684713816   0.2664185231508861   
O   0.16666666666666669   0.5   0.33333333333333337   
H   0.47405875643407913   -0.06943736902833401   0.20533958024595106   
H   0.4695604161104805   0.05858404501322375   0.2179641518151196   
O   0.5   0.0   0.16666666666666669   
%ENDBLOCK positions_frac

