%BLOCK lattice_cart
11.955234   0   0
0   11.955234   0
0   0   11.955234
%ENDBLOCK lattice_cart

%BLOCK positions_frac
H   0.3456528073841395   0.4101779375786098   0.5096346626387726   
H   0.3637949534656344   0.5121914915187017   0.4149349878260846   
H   0.38001467322598836   0.5647268767095321   0.5440894885424973   
H   0.24423700299917314   0.5190416537734233   0.5034436035257907   
C   0.3333333333333333   0.5   0.5   
H   0.9019445640837203   -0.03639597602301618   0.7855794747778957   
H   0.8630562685070129   0.08564921653876156   0.8429955221972052   
H   0.8124197396362914   -0.02045677215670086   0.9196857573542456   
H   0.7574843474529683   -0.0003681702734054004   0.7827428712455688   
C   0.8333333333333333   0.0   0.8333333333333333   
H   0.883804784860807   -0.042345919283073845   0.10364242717530256   
H   0.7875911411819868   -0.07057226557544681   0.20187754923756318   
H   0.7648165427912401   0.057635209799573574   0.14945530216952055   
H   0.8878928090977768   0.035740454243786184   0.2303728876928779   
C   0.8333333333333333   0.0   0.16666666666666666   
H   0.4669643149832698   0.21072141917113874   0.40599984116141496   
H   0.589610381605614   0.17680775499872475   0.34673993240323864   
H   0.49260971320952185   0.19452565823170628   0.24683559167022923   
H   0.4782146539084843   0.07830403574520736   0.3388145024599337   
C   0.5   0.16666666666666666   0.3333333333333333   
H   0.16685086450775657   0.13800135339233996   0.4198831163990557   
H   0.11067691919081052   0.23836590049837225   0.33941339157481554   
H   0.12945934047282592   0.12210332997897334   0.2630316764293316   
H   0.25022123815496655   0.1951474933475817   0.3105281769501419   
C   0.16666666666666666   0.16666666666666666   0.3333333333333333   
H   -0.04835647197763361   0.759259759586392   0.14459051770638948   
H   0.08310292991727272   0.8081449076674747   0.1388809632506304   
H   0.01827607130081521   0.861089092943447   0.25156779792507006   
H   -0.028524621111573896   0.9042330960264873   0.11694575855771153   
C   0.0   0.8333333333333333   0.16666666666666666   
H   0.6547579111105689   0.505742231981707   0.743123536882743   
H   0.6188147888868307   0.42465152658660793   0.8519183921144765   
H   0.6320452855177764   0.5576116401258226   0.8949357517277399   
H   0.7547964233562251   0.48534455909445434   0.8515257246106455   
C   0.6666666666666666   0.5   0.8333333333333333   
H   0.8891496317486358   0.7213724347538633   0.21361790554156013   
H   0.7777554321463236   0.7280206170177508   0.12846471987534128   
H   0.7726024484026455   0.6092965815598851   0.2031773776027706   
H   0.8805210674883923   0.6236595823388276   0.10157974397390775   
C   0.8333333333333333   0.6666666666666666   0.16666666666666666   
H   0.9039054694192267   -0.0538939404372857   0.5206788746091274   
H   0.7997721042809973   -0.04333882686972565   0.4271440527291276   
H   0.8395226209189429   0.0850334405813903   0.467695112370458   
H   0.7722918342789361   -0.0024772427369987877   0.5676786356562953   
C   0.8333333333333333   0.0   0.5   
H   0.6632930810624199   0.24877826953184207   0.5394829413515013   
H   0.7201271570723464   0.12187840857034528   0.558724670837435   
H   0.7084490501299695   0.14763089708362415   0.4212315356808934   
H   0.583452250348378   0.12941144042227615   0.5000899831615598   
C   0.6666666666666666   0.16666666666666666   0.5   
H   0.22647452728206408   0.17444220174203875   0.5982915255290835   
H   0.19133164131704494   0.23729109884296287   0.7187860264857923   
H   0.16554776325588078   0.09964921763322432   0.7284728851474218   
H   0.08226649377420113   0.18024612991280287   0.6349679591795732   
C   0.16666666666666666   0.16666666666666666   0.6666666666666666   
H   0.15823770012950175   0.5868230740428912   0.3598532390560453   
H   0.12453634623449343   0.5028616715426442   0.2525283458700091   
H   0.12470390033675365   0.4287488538733515   0.3717390553062848   
H   0.2548433716993432   0.480367150906675   0.3210037352562407   
C   0.16666666666666666   0.5   0.3333333333333333   
H   0.7919561703345642   0.31467886667485256   0.08759366040950908   
H   0.9077371017372434   0.2811264547001573   0.159516832167765   
H   0.8032450980933818   0.30864674525867014   0.24911586030772537   
H   0.8578063381951248   0.42114682516546265   0.16823566251333102   
C   0.8333333333333333   0.3333333333333333   0.16666666666666666   
H   0.004928145201485447   -0.0860951851543585   -0.029596140640180783   
H   0.009541484718903571   -0.012448611553644545   0.08981420378998496   
H   -0.07464474822560663   0.05231563328402523   -0.0019583511203921937   
H   0.07113854087642246   0.04726775943097986   -0.03190087746492463   
C   0.0   0.0   0.0   
H   0.34362775062443857   0.6489850878451756   0.24448522808792278   
H   0.2954673919575557   0.5887579712675601   0.3617763417469834   
H   0.27536246226833455   0.7275092281480411   0.3686909334079143   
H   0.41526361674300455   0.6766074321876849   0.3720787705350303   
C   0.3333333333333333   0.6666666666666666   0.3333333333333333   
H   0.01813216140708723   0.12567024552535092   0.4206078263366295   
H   0.06523690605426363   0.23034370249616998   0.5014072167988203   
H   0.011064802691493496   0.1293343403689271   0.5824406854488788   
H   -0.0816986543959971   0.20688944226515973   0.49552146723577395   
C   0.0   0.16666666666666666   0.5   
H   0.09978412726800409   0.5516399155064713   0.6324227750543746   
H   0.23969649372195562   0.5405420501137383   0.6301210021422219   
H   0.18280976616861866   0.413030797446776   0.6445678610788089   
H   0.16889440089024735   0.5092792334713633   0.7573393311753077   
C   0.16666666666666666   0.5   0.6666666666666666   
H   0.4778164204553797   -0.009206495685551205   0.9212863224722079   
H   0.5403318686174716   0.08175836544925877   0.8345617939847222   
H   0.44086676009491294   0.011371143152088195   0.7648749072308754   
H   0.561081055704757   -0.06372791534918112   0.8105198175603636   
C   0.5   0.0   0.8333333333333333   
H   0.6863695795313224   0.40727610205364484   0.04956673522944453   
H   0.610384816729236   0.3691650038036411   -0.06213729815184564   
H   0.6172272378459434   0.2622535368751576   0.028565792060233536   
H   0.7422573329710827   0.30325398816575344   -0.041156812615016435   
C   0.6666666666666666   0.3333333333333333   0.0   
H   0.38466211232743647   0.29925143212071587   0.6125994356831961   
H   0.37216340876456466   0.31683082883484814   0.7369473723887524   
O   0.3333333333333333   0.3333333333333333   0.6666666666666666   
H   0.014792866332668927   0.5409849418492071   0.7639006993865142   
H   0.02663295909859282   0.425242997457352   0.8128013809175675   
O   0.0   0.5   0.8333333333333333   
H   -0.03347873270672196   0.2349108541449506   0.13598458164473956   
H   0.018065692291424046   0.1262722527759185   0.09766371674445985   
O   0.0   0.16666666666666666   0.16666666666666666   
H   0.5276072553067096   0.8904647377496495   0.7185639410976187   
H   0.4577689437182781   0.8798156645355503   0.6139844516330378   
O   0.5   0.8333333333333333   0.6666666666666666   
H   0.5895578382997941   0.8313446452508482   0.8610778592278377   
H   0.7041569639186971   0.7866639292316803   0.8893327024571285   
O   0.6666666666666666   0.8333333333333333   0.8333333333333333   
H   0.860270344551272   0.5770059367780164   -0.007998008320629782   
H   0.8611809804054698   0.4818829504167092   0.07493841522513257   
O   0.8333333333333333   0.5   0.0   
H   0.011785390820358342   0.40332875349550606   0.6256638529943784   
H   -0.058488661104547854   0.35625266067635986   0.7193284741351974   
O   0.0   0.3333333333333333   0.6666666666666666   
H   0.5296888568418705   0.34804551332813277   0.7583559464174398   
H   0.4296773996785571   0.29557030644100146   0.8146740007227685   
O   0.5   0.3333333333333333   0.8333333333333333   
H   0.35249360065817065   0.2541936948798323   0.009449168799528245   
H   0.37089094609969603   0.3496715973827436   -0.07100684375928673   
O   0.3333333333333333   0.3333333333333333   0.0   
H   0.32131218279903623   0.7522732190003637   0.8353911996238711   
H   0.3742749243235987   0.840819801183246   0.7627130534143886   
O   0.3333333333333333   0.8333333333333333   0.8333333333333333   
H   0.6640556085355095   0.5950096867397774   0.37305668430861205   
H   0.6813278545278321   0.6410954588742942   0.2568438052131325   
O   0.6666666666666666   0.6666666666666666   0.3333333333333333   
H   0.3834749373558835   0.708812270694911   -0.04928541991960982   
H   0.26299529371088476   0.7070909482906956   -0.011744047290611272   
O   0.3333333333333333   0.6666666666666666   0.0   
H   0.005070763597172326   0.7711056390948338   0.7802156673848613   
H   0.0733107290913318   0.8684188883229591   0.8226550450491854   
O   0.0   0.8333333333333333   0.8333333333333333   
H   -0.06029480380381739   0.3867464100507097   0.015200818377800995   
H   0.06536610470283914   0.37746797502555157   0.022335862826160208   
O   0.0   0.3333333333333333   0.0   
H   0.7544098697673691   0.8251242193480164   0.31276193678764225   
H   0.8695921675187641   0.798347547957757   0.26867440684456767   
O   0.8333333333333333   0.8333333333333333   0.3333333333333333   
H   0.023462010435295378   0.06572775812363023   0.6236680517135346   
H   0.05160147304853028   0.004224271729682741   0.7302192316588656   
O   0.0   0.0   0.6666666666666666   
H   0.6325070263618155   0.7401859611679055   0.654520995841415   
H   0.6379195723850177   0.6256628871287128   0.6017684413944997   
O   0.6666666666666666   0.6666666666666666   0.6666666666666666   
H   0.29406238884176683   -0.0014999306104915523   0.07193766841103541   
H   0.30639389498055214   0.07114955394020449   -0.03052036442866794   
O   0.3333333333333333   0.0   0.0   
H   0.13908828335599444   0.3792752167056334   0.771298978853838   
H   0.14370038177072803   0.2587175836059996   0.8083428419372333   
O   0.16666666666666666   0.3333333333333333   0.8333333333333333   
H   -0.0022995149332768585   0.25222068937214176   0.3449495388329222   
H   0.019853523656147013   0.3367320350480328   0.2538740894746017   
O   0.0   0.3333333333333333   0.3333333333333333   
H   0.20595487006460078   0.7617659025020174   0.3259831682005334   
H   0.09199787155370526   0.8074886613487285   0.3551532548707458   
O   0.16666666666666666   0.8333333333333333   0.3333333333333333   
H   0.6438106861023246   0.5763059273009998   0.14731480317270293   
H   0.5936101535813821   0.46496551916335815   0.17910917677671698   
O   0.6666666666666666   0.5   0.16666666666666666   
H   0.4364337066003506   0.212946545002076   0.6898395865129323   
H   0.4694667361013932   0.09161585569793   0.6790997104671629   
O   0.5   0.16666666666666666   0.6666666666666666   
H   0.1941532569173065   0.1409723127461786   -0.0728270042121341   
H   0.2044818575415635   0.23916554377810653   0.005780066278817767   
O   0.16666666666666666   0.16666666666666666   0.0   
H   0.6903357626301833   0.20776688290609427   0.2335249580810769   
H   0.6942988550467808   0.09156626624911877   0.18443959641845295   
O   0.6666666666666666   0.16666666666666666   0.16666666666666666   
H   0.4728275001059826   0.5758610237173863   0.6817081207044865   
H   0.4742797873545013   0.48968054390918114   0.5895209312241158   
O   0.5   0.5   0.6666666666666666   
H   -0.0739683970481319   0.6655752718831072   0.6313542027896105   
H   0.04787547367866788   0.6788116640293151   0.6012455456993788   
O   0.0   0.6666666666666666   0.6666666666666666   
H   0.6192320215109995   0.3977445186752317   0.3512397191026512   
H   0.7118873131837608   0.364267111538964   0.27236055658819125   
O   0.6666666666666666   0.3333333333333333   0.3333333333333333   
H   0.1591870941027322   0.7079578277712124   0.2370838593003648   
H   0.15992533957272098   0.5895119015367911   0.19352149372398078   
O   0.16666666666666666   0.6666666666666666   0.16666666666666666   
H   0.36998640044910186   0.21664116513882278   0.11301419996684478   
H   0.32994096777370935   0.09737551802416099   0.12300073503542668   
O   0.3333333333333333   0.16666666666666666   0.16666666666666666   
H   0.24427210897397228   -0.020139990065949683   0.1496002923023509   
H   0.16271143978237443   -0.020604516759975773   0.24590866991553534   
O   0.16666666666666666   0.0   0.16666666666666666   
H   0.6841567000563331   0.8304965019437668   0.5800345933281826   
H   0.730330956010688   0.7919820232822363   0.46907408159988045   
O   0.6666666666666666   0.8333333333333333   0.5   
H   0.18045542632800704   0.6913749431724726   0.423065897102608   
H   0.10630004464411918   0.6125316189721192   0.4879686839369909   
O   0.16666666666666666   0.6666666666666666   0.5   
H   0.22065601818002412   -0.05715937612332621   0.8101505670214515   
H   0.10246364672685748   -0.04693188602478359   0.8532042999499136   
O   0.16666666666666666   0.0   0.8333333333333333   
H   0.08509268264194131   0.33298843857171734   0.1747320983010757   
H   0.17511508667144404   0.2925089535635415   0.09608707170220998   
O   0.16666666666666666   0.3333333333333333   0.16666666666666666   
H   0.5302894359822274   0.9094819026926797   0.3351854839523262   
H   0.5231904479444486   0.8059750481260176   0.4070436607248397   
O   0.5   0.8333333333333333   0.3333333333333333   
H   0.2800849136456473   0.06230872491034435   0.33202428393657507   
H   0.3984782120936498   0.03641386110829407   0.3672399772250781   
O   0.3333333333333333   0.0   0.3333333333333333   
H   0.4525084181662011   0.0292634005708274   0.43993596707290683   
H   0.5284935195974694   0.0697946251649128   0.5321918413351895   
O   0.5   0.0   0.5   
H   0.3990284970681032   0.15732369462822438   0.45187163679426934   
H   0.36885424831201113   0.19184866074877008   0.569452262617128   
O   0.3333333333333333   0.16666666666666666   0.5   
H   0.7148793325321157   0.00527356639172396   0.06608489507573348   
H   0.5933688901266613   -0.009631779391346757   0.035413977319131054   
O   0.6666666666666666   0.0   0.0   
H   0.8693697397971311   0.6273670159914464   0.895594074378503   
H   0.8066739177750893   0.734191925072599   0.8714003800905612   
O   0.8333333333333333   0.6666666666666666   0.8333333333333333   
H   0.28885041191727623   0.6293785603554901   0.6087844428018966   
H   0.3936906992129163   0.6985201168396884   0.6212592762366381   
O   0.3333333333333333   0.6666666666666666   0.6666666666666666   
H   0.49112069336904773   0.25722288714374736   0.5291177420842986   
H   0.545763470620729   0.3189166718332609   0.43353685504394135   
O   0.5   0.3333333333333333   0.5   
H   0.5273850324937338   0.09029897033861961   -0.01172689056725591   
H   0.419237607515438   0.15332970159604675   0.004364210396703073   
O   0.5   0.16666666666666666   0.0   
H   0.8380826842380174   0.8301385302956996   0.5848942880229768   
H   0.8643916386341209   0.9078706039499116   0.6807755989574564   
O   0.8333333333333333   0.8333333333333333   0.6666666666666666   
H   0.6783904411681977   0.42022777355929636   0.5147793778503162   
H   0.7442132583161518   0.5258807550120292   0.4939835514572658   
O   0.6666666666666666   0.5   0.5   
H   0.2944306120941184   0.2318289132868834   0.8643163110001435   
H   0.28661427299552084   0.15080383250385132   0.7678720096147671   
O   0.3333333333333333   0.16666666666666666   0.8333333333333333   
H   0.060153727100812106   0.13011559033798134   0.791321038173372   
H   -0.029231230069157146   0.21796434946094848   0.7764688634237904   
O   0.0   0.16666666666666666   0.8333333333333333   
H   0.5057784828722065   0.5581637180857457   0.05747239375256241   
H   0.49312777282172127   0.4330492369955103   0.046795863452220275   
O   0.5   0.5   0.0   
H   0.7740719365624632   0.37788084501806535   0.4650272811326279   
H   0.8457253024144687   0.37597744197521005   0.5689014086208988   
O   0.8333333333333333   0.3333333333333333   0.5   
H   0.29228450380278675   0.2932898112879508   0.274758637893364   
H   0.3967484544714189   0.3623852402964012   0.29027530130255835   
O   0.3333333333333333   0.3333333333333333   0.3333333333333333   
H   0.8886005528705937   0.1658726244068637   0.6061324701243652   
H   0.865871536040331   0.2233103040014976   0.7161868516783418   
O   0.8333333333333333   0.16666666666666666   0.6666666666666666   
H   -0.04229383509866372   0.4893266704113935   0.4305968548432272   
H   -0.013479811205372933   0.4282015225720353   0.5371854586956463   
O   0.0   0.5   0.5   
H   0.3202294549023806   0.5485027438481732   0.7685625280366768   
H   0.26439907858186873   0.4556429248975542   0.8332748548908608   
O   0.3333333333333333   0.5   0.8333333333333333   
H   0.6150045168202303   0.38210052123171767   0.6257732849620424   
H   0.6738577150675249   0.27110252715704825   0.6137979557398981   
O   0.6666666666666666   0.3333333333333333   0.6666666666666666   
H   0.6332914576929817   -0.07149906872626309   0.6888807074236302   
H   0.6480465129984826   0.04630001367774112   0.7316980715440508   
O   0.6666666666666666   0.0   0.6666666666666666   
H   0.20094199492769646   0.7962578853103274   0.7312429629061081   
H   0.19453035145672376   0.7862854791526074   0.6055962196695998   
O   0.16666666666666666   0.8333333333333333   0.6666666666666666   
H   0.06230229731848272   0.6216802288609772   -0.028532948882060448   
H   0.02963544290951798   0.7423077031749713   -0.010938881525004504   
O   0.0   0.6666666666666666   0.0   
H   0.8927528762580058   0.5484887946990674   0.637724660572293   
H   0.8631119828151368   0.42617376466210405   0.6471115133718046   
O   0.8333333333333333   0.5   0.6666666666666666   
H   0.7716403149214394   0.5448120665599114   0.36342212160025855   
H   0.7931741003777881   0.43229375684415283   0.31047320088280667   
O   0.8333333333333333   0.5   0.3333333333333333   
H   0.516715609160552   0.8169640166842335   0.07856283403967322   
H   0.483672741228718   0.758059435387479   -0.02804899140013372   
O   0.5   0.8333333333333333   0.0   
H   0.3783893763342022   0.8292770868382624   0.4316407660737253   
H   0.3612530150537415   0.903236877577989   0.5324572162111697   
O   0.3333333333333333   0.8333333333333333   0.5   
H   0.8849094985240467   0.10651697490355741   -0.021009492486380045   
H   0.8863924886134313   0.2258055733351676   0.020169302628718837   
O   0.8333333333333333   0.16666666666666666   0.0   
H   0.7219606264390799   0.645011171446701   0.056507544177541925   
H   0.6295107654143216   0.728950077399542   0.03820603040251646   
O   0.6666666666666666   0.6666666666666666   0.0   
H   0.4514488266999069   0.6340176663010563   0.22408017862877153   
H   0.4459730068640367   0.6788491118661615   0.1062335875529897   
O   0.5   0.6666666666666666   0.16666666666666666   
H   -0.021969845490023083   0.5760219258687718   0.14527793865727953   
H   0.026330860539403818   0.5127837246843727   0.2432352449214618   
O   0.0   0.5   0.16666666666666666   
H   0.1193017976345705   0.7334584526442172   0.8294717899872701   
H   0.23996688866644322   0.7007961260982943   0.8468145225687241   
O   0.16666666666666666   0.6666666666666666   0.8333333333333333   
H   0.6842611616750048   0.8815602158629834   0.23057352511225887   
H   0.6896827156811038   0.7603156382598766   0.1959610808686401   
O   0.6666666666666666   0.8333333333333333   0.16666666666666666   
H   0.1060729444413369   0.8397986656385482   -0.05482777867627674   
H   0.16049068072194264   0.7541242136388134   0.02018062348744106   
O   0.16666666666666666   0.8333333333333333   0.0   
H   0.11913950888532342   0.5205388383190203   0.06355163572438174   
H   0.22288309919948893   0.559572670031474   0.0032085367561908674   
O   0.16666666666666666   0.5   0.0   
H   0.809564470120401   0.8965609371875082   0.04644132063084016   
H   0.8022626013173412   0.8553017347649083   -0.07260498577951545   
O   0.8333333333333333   0.8333333333333333   0.0   
H   0.3545173477685021   0.4308709184710397   0.12804164072641652   
H   0.2572841372276895   0.5107085114293936   0.13800776640577134   
O   0.3333333333333333   0.5   0.16666666666666666   
H   0.42758734618790073   0.5333721041039612   0.3143019055078781   
H   0.5119349174328919   0.5312804291586429   0.408156976034242   
O   0.5   0.5   0.3333333333333333   
H   0.14563072964862087   0.2895439192645927   0.5660262188740296   
H   0.1046864884577833   0.3868917332273435   0.49692748970702794   
O   0.16666666666666666   0.3333333333333333   0.5   
H   0.5188918418692298   0.37366457089521216   0.23548508423803613   
H   0.552487009562071   0.2705168910560931   0.17099025503436333   
O   0.5   0.3333333333333333   0.16666666666666666   
H   -0.0026154117969867086   -0.02617846008492644   0.41096923262113805   
H   0.08008879028236066   -0.007402928116165253   0.317507173472931   
O   0.0   0.0   0.3333333333333333   
%ENDBLOCK positions_frac

