%BLOCK lattice_cart
13.26   0   0
0   13.26   0
0   0   13.26
%ENDBLOCK lattice_cart

%BLOCK positions_frac
H   0.8511203421511893   0.8423837520304971   0.5869239592101242   
H   0.7781531324324156   0.8934021649014173   0.6768680418857094   
H   0.8846177788614104   0.8490331249379819   0.7289612037002501   
H   0.7971361830346029   0.7605030867596652   0.678612739161423   
C   0.8333333333333334   0.8333333333333334   0.6666666666666666   
H   0.32897687086072   0.10272821682351553   0.11518770960497261   
H   0.2582010561203107   0.16455791227909652   0.19995151651608922   
H   0.33783593124573913   0.24562146409722763   0.14423780738852995   
H   0.3894984253690397   0.15138423322396105   0.22471076040987265   
C   0.3333333333333333   0.16666666666666666   0.16666666666666666   
H   0.548971060906554   0.13802428536612893   -0.05948643829396214   
H   0.4681041835589891   0.0964961145801218   0.02856462265129743   
H   0.4316453375916788   0.21079298837454724   -0.01173435185075172   
H   0.5456812566196328   0.20188734989877538   0.058565462690009465   
C   0.5   0.16666666666666666   0.0   
H   0.19215850647802385   0.28734098663188423   0.43681727054244973   
H   0.18845219905727725   0.4082352140549512   0.4740715215139345   
H   0.19954701987811646   0.33314366556395497   0.5753394554838813   
H   0.08478103662915819   0.32903951291384925   0.5057873874369778   
C   0.16666666666666666   0.3333333333333333   0.5   
H   0.24335384075161098   0.19609752006870138   -0.0031763741394184586   
H   0.1423574042610478   0.17912341844855842   -0.07753113084509526   
H   0.10424868790230793   0.20078913694751377   0.04119271904942606   
H   0.1688677589934825   0.08595670103995552   0.015435148035704602   
C   0.16666666666666666   0.16666666666666666   0.0   
H   -0.05537496827533473   0.2777499095296748   0.35785440673048996   
H   -0.03404481338605765   0.4024276088891583   0.3620408048469379   
H   0.014572266606074516   0.35480967000378505   0.25533587720200124   
H   0.07134619488272556   0.31983346317992606   0.3718646340559597   
C   0.0   0.3333333333333333   0.3333333333333333   
H   -0.006178593601837712   0.31225768595750114   0.5874528470227871   
H   0.07124420932404163   0.37433336685821045   0.665998054274264   
H   0.012998391907876279   0.28124144679671015   0.7289134683406885   
H   -0.061072856803613955   0.3847617525131135   0.686221998837056   
C   0.0   0.3333333333333333   0.6666666666666666   
H   0.40363681856446115   0.1711738879598999   0.8756924182426016   
H   0.3428660912279261   0.22956769772468175   0.7812778439730184   
H   0.2585511828035392   0.18293565198257536   0.8633356204579867   
H   0.3312158679543244   0.09617585174940002   0.7910988864155799   
C   0.3333333333333333   0.16666666666666666   0.8333333333333334   
H   0.8574335612550098   0.6186339499658415   0.5622030891052985   
H   0.8781651232621941   0.6355818315618114   0.43850991305861853   
H   0.8503670203244866   0.7467153324680027   0.4923024832125152   
H   0.7535278240003904   0.6540179360871108   0.48489114668098443   
C   0.8333333333333334   0.6666666666666666   0.5   
H   0.3707909287394444   0.5968091390237182   0.3551058281785955   
H   0.25690187288901906   0.6518117321572819   0.3596914426898727   
H   0.318423186578736   0.6906265536735418   0.2561271257321674   
H   0.3653156736700893   0.7293472053633787   0.37582412208871024   
C   0.3333333333333333   0.6666666666666666   0.3333333333333333   
H   0.8431731587082791   0.16297624953163334   0.585139089665138   
H   0.8471572094811499   0.24658250177378635   0.6800661778951282   
H   0.8836486869260002   0.13298313895985886   0.7222631801171502   
H   0.7554145229328043   0.14872220672113684   0.6857413225432443   
C   0.8333333333333334   0.16666666666666666   0.6666666666666666   
H   0.787848350966371   0.5684709753110345   0.00017050751596835233   
H   0.8568844344594425   0.4975656195547712   -0.07871852756102497   
H   0.8044554390095718   0.42364065371511717   0.009617931594224817   
H   0.8991861820549755   0.5106838194647167   0.0480254668969499   
C   0.8333333333333334   0.5   0.0   
H   0.1501210924689708   0.8400035335211651   0.08024300316976535   
H   0.133104647341779   0.9028340891143142   -0.02829174717984927   
H   0.13316699022786044   0.7783486907760795   -0.05110428470418591   
H   0.24803032591975485   0.8354836463021098   -0.01151165760713218   
C   0.16666666666666666   0.8333333333333334   0.0   
H   0.151930726063105   0.5747602575376639   0.6358293013250774   
H   0.16342431843901073   0.5158655992159972   0.7472579633014035   
H   0.23821506143186333   0.45980559718022246   0.6619312319173307   
H   0.10529687806447895   0.4492873873863825   0.6461930953464466   
C   0.16666666666666666   0.5   0.6666666666666666   
H   0.47689781448177043   -0.0012642431054501282   0.24554554766425568   
H   0.4838164537896471   -0.07757565727398202   0.14481952991268374   
H   0.5773277561943557   0.007557882199997014   0.13982483937459467   
H   0.4512377479467504   0.051093297385005454   0.12460831564332135   
C   0.5   0.0   0.16666666666666666   
H   0.86807143023129   0.5934844427843347   0.8193757588547722   
H   0.8597530276368381   0.7087907317842785   0.767875331189541   
H   0.8538004885927976   0.718296350964154   0.8939357954013629   
H   0.751529807109425   0.6592884498659263   0.8300269504220882   
C   0.8333333333333334   0.6666666666666666   0.8333333333333334   
H   0.1438749374931853   0.5018209558103601   0.25437506362711715   
H   0.10246236211236925   0.4610918420882961   0.3668169065954139   
H   0.1722940712618713   0.5654267840532571   0.38277881239614064   
H   0.23407842707101467   0.4536511911222719   0.3413725888077411   
C   0.16666666666666666   0.5   0.3333333333333333   
H   0.44364410579139385   0.3116870892531297   0.4442089571799484   
H   0.568310370073168   0.3309962574249744   0.45433361662617033   
H   0.523174568608945   0.28780215689602257   0.5643975038010323   
H   0.48604821513528096   0.41052611646766834   0.5245725270341555   
C   0.5   0.3333333333333333   0.5   
H   0.6261134958643633   0.5548757047367043   0.12082689658315256   
H   0.6649869612129599   0.4344950901820159   0.11703328542876656   
H   0.6391311252062598   0.46679058346209235   0.23663891661958825   
H   0.744389982442791   0.5247798845594887   0.17677758451637077   
C   0.6666666666666666   0.5   0.16666666666666666   
H   0.5370349788511473   0.30102765772255935   0.10077326169616373   
H   0.5380054427856835   0.4060710865070176   0.17135630798434756   
H   0.5085763741175239   0.30666628073607616   0.24394862618214194   
H   0.4202842468017806   0.34502607151144343   0.15036127738217184   
C   0.5   0.3333333333333333   0.16666666666666666   
H   0.4057808634796913   0.46200175132431837   0.17470878249857286   
H   0.31172914662593093   0.47575793755248685   0.09114998851685163   
H   0.3226494563010955   0.5812488095921323   0.1602112143043899   
H   0.2801698118928123   0.4696044834308102   0.2215022364577753   
C   0.3333333333333333   0.5   0.16666666666666666   
H   0.30734210617471447   0.32363780449243523   -0.07737984223985317   
H   0.3265779347732672   0.2563730748777757   0.028083275495009694   
H   0.2933772333136402   0.3745661363159072   0.05882646668971973   
H   0.412457280692487   0.3556165098142833   -0.00021944020802547694   
C   0.3333333333333333   0.3333333333333333   0.0   
H   0.32944012405453305   0.6902437409912829   0.7453187590837357   
H   0.3477524799639448   0.5862316776872587   0.6755822660356164   
H   0.3928558367906486   0.6870291197542403   0.6137551439120679   
H   0.2600508211211235   0.6776271698386334   0.6310755451914335   
C   0.3333333333333333   0.6666666666666666   0.6666666666666666   
H   0.8586815555924424   0.2371669838438041   0.3671617246637825   
H   0.773798063240681   0.1941180654249144   0.2837434202965998   
H   0.7936866618660251   0.10645992466503461   0.3728362042782712   
H   0.8940261678904893   0.13452568755506183   0.2881611687964721   
C   0.8333333333333334   0.16666666666666666   0.3333333333333333   
H   0.34425119663380493   0.7607401424718033   0.7963439286980347   
H   0.4062345681800852   0.8686528306231699   0.8193644313438369   
H   0.32612547069403997   0.8448460371175329   0.9144054710967509   
H   0.2745104677936079   0.875446824655191   0.794301147996622   
C   0.3333333333333333   0.8333333333333334   0.8333333333333334   
H   0.5701118392007745   0.514148798834513   0.37384664780160926   
H   0.4545281397787473   0.46625816199160836   0.392923478908038   
H   0.4900001269466813   0.4446662100926267   0.2733720008999696   
H   0.4665857317962881   0.5715483570426635   0.3104968178660793   
C   0.5   0.5   0.3333333333333333   
H   0.35134690726555595   0.8742839245547602   0.5689619270799775   
H   0.36097871971428236   0.758330756006352   0.5191711543715659   
H   0.36949362878042613   0.8447013456499555   0.4270590068416376   
H   0.2517691127225802   0.8308112274216346   0.4900952510526142   
C   0.3333333333333333   0.8333333333333334   0.5   
H   0.3998991010079097   0.8498000818657329   0.2119991265651238   
H   0.36449572670994496   0.7796045799251281   0.1128213934291599   
H   0.29616827098364856   0.8860930927314491   0.11575151094091869   
H   0.276952688163265   0.7958738578875071   0.2133056814859203   
C   0.3333333333333333   0.8333333333333334   0.16666666666666666   
H   -0.05114349569388396   0.27796695761257284   0.032803878452668266   
H   -0.026136798809121498   0.3339025048353631   -0.07793414492757947   
H   0.0807673848098299   0.3228242946709866   -0.011107511474418599   
H   -0.013672144306518428   0.40688504496416084   0.034064722808464246   
C   0.0   0.3333333333333333   0.0   
H   0.03517279362524623   -0.015609723378857611   -0.07263882073940603   
H   0.049476414242977745   0.05914853046588956   0.028473196714861194   
H   -0.0011314571712160429   -0.051172670750134326   0.06432157279442278   
H   -0.0753227377579588   0.03065133301895028   -0.012007002731212987   
C   0.0   0.0   0.0   
H   0.6441791272712788   0.20791262673101174   0.432544321928458   
H   0.7147198407924533   0.22241045985106656   0.5366156951542895   
H   0.7159195353771274   0.10086778611179276   0.5013599247389995   
H   0.6005819745325989   0.15244672387917765   0.5467738585798327   
C   0.6666666666666666   0.16666666666666666   0.5   
H   0.21148670344017806   -0.04299072561168436   0.8871863645273352   
H   0.2037515774885506   -0.020475558812253238   0.7628872686140102   
H   0.16578267100184585   0.08193849486391719   0.8268149926794113   
H   0.08952245141496254   -0.0283873336197433   0.8329920168521756   
C   0.16666666666666666   0.0   0.8333333333333334   
H   -0.010830227752390753   0.5229335946553518   0.763914855769493   
H   0.03447195074471493   0.43574268834761426   0.8212979216109136   
O   0.0   0.5   0.8333333333333334   
H   0.8239775789171044   0.018236069736358457   0.42899236488841547   
H   0.8003115015386045   -0.06609917814640959   0.5016204621426879   
O   0.8333333333333334   0.0   0.5   
H   0.15960765636001284   0.6366532534659692   0.766165379472874   
H   0.17314330325654628   0.738161959881539   0.8157650422705094   
O   0.16666666666666666   0.6666666666666666   0.8333333333333334   
H   0.03406323244263361   0.19840616821719229   0.8907307972246008   
H   -0.053611253757218875   0.21584911154598035   0.8203299026114662   
O   0.0   0.16666666666666666   0.8333333333333334   
H   0.4760065149146503   0.6896759121819719   0.899341332231509   
H   0.44164092626729506   0.6275214201801289   0.8104414829311714   
O   0.5   0.6666666666666666   0.8333333333333334   
H   0.7126678570551483   0.630145423431061   0.7115248643526463   
H   0.6013041957576362   0.6452012674414481   0.6936694935007995   
O   0.6666666666666666   0.6666666666666666   0.6666666666666666   
H   0.17235973736399718   0.4548247493019563   -0.05821472575448712   
H   0.21705608566731094   0.5511836539082896   -0.017415758658180257   
O   0.16666666666666666   0.5   0.0   
H   0.8667973573288698   0.06318270189753239   0.14795106079296408   
H   0.815695809925099   0.014173174215715874   0.23702437786409686   
O   0.8333333333333334   0.0   0.16666666666666666   
H   0.7933920454558424   0.6094513031437264   0.19102368462640965   
H   0.8738100970078324   0.6337930059257936   0.11429183820681607   
O   0.8333333333333334   0.6666666666666666   0.16666666666666666   
H   0.3314415393699244   0.40132032523379146   0.695586533059738   
H   0.3508867778889627   0.3487679445231304   0.5965537720900035   
O   0.3333333333333333   0.3333333333333333   0.6666666666666666   
H   -0.01767957559747666   0.9004678965193761   0.1920152693259532   
H   0.06567536458926626   0.8472342345118341   0.13575259128410747   
O   0.0   0.8333333333333334   0.16666666666666666   
H   0.6531960712371441   0.8101379314155981   0.7644661785139647   
H   0.7273889446593467   0.7943367815394731   0.8492783177433131   
O   0.6666666666666666   0.8333333333333334   0.8333333333333334   
H   0.5389835049992092   0.0492958125035954   0.5388893022803578   
H   0.5517073348534727   -0.05119410424969761   0.48705072061124666   
O   0.5   0.0   0.5   
H   0.7982996597691642   0.8148625840228952   0.39573238589646303   
H   0.7759116007827358   0.8489952654400172   0.28951989774743897   
O   0.8333333333333334   0.8333333333333334   0.3333333333333333   
H   0.28126040994957135   0.03394969821983144   0.3733082913110133   
H   0.2997577222794434   -0.003905533054179888   0.26760971673939765   
O   0.3333333333333333   0.0   0.3333333333333333   
H   0.01881706195515086   -0.058452754871882645   0.2922071585594785   
H   0.06614128361794228   0.03130752871130597   0.3436937325354739   
O   0.0   0.0   0.3333333333333333   
H   0.6526466364783068   -0.07239968552106334   0.66177862879502   
H   0.6302277640182666   0.016837864223630365   0.728721975274658   
O   0.6666666666666666   0.0   0.6666666666666666   
H   0.340098390200754   0.5623393479560338   0.8724512106564085   
H   0.401637435553519   0.4936145041081868   0.805838903236019   
O   0.3333333333333333   0.5   0.8333333333333334   
H   0.8619422496197418   0.1187059817638889   -0.04840941268844099   
H   0.8577357467806552   0.2305664381696553   -0.027991249419735714   
O   0.8333333333333334   0.16666666666666666   0.0   
H   0.336830942421432   0.20165995048971294   0.5650031187114328   
H   0.35166223694363785   0.22148413853562904   0.45394281060892094   
O   0.3333333333333333   0.16666666666666666   0.5   
H   0.7029468653285186   0.5596383772750101   0.4757269745329067   
H   0.6913079672370827   0.4963695961226974   0.5695830086885593   
O   0.6666666666666666   0.5   0.5   
H   0.38987560308266134   0.30341951801292816   0.29631571578659   
H   0.36694273252905923   0.3906698000343039   0.36566144024074243   
O   0.3333333333333333   0.3333333333333333   0.3333333333333333   
H   0.5075226205066684   0.7777842106552796   -0.048165067992033635   
H   0.45164271920082893   0.8038332619921089   0.047470915399208675   
O   0.5   0.8333333333333334   0.0   
H   0.7900622423103487   0.8842189670313052   -0.031629631504373416   
H   0.8988777083294509   0.8673532946054354   -0.0029573240740674396   
O   0.8333333333333334   0.8333333333333334   0.0   
H   0.889336169456851   0.3654172857011945   0.2026732073342354   
H   0.807552858027008   0.39057443603724556   0.12766677078877786   
O   0.8333333333333334   0.3333333333333333   0.16666666666666666   
H   0.8048141425203523   0.4006775683573244   0.5106573162040108   
H   0.8404677680565971   0.3329756943703404   0.42643954486398494   
O   0.8333333333333334   0.3333333333333333   0.5   
H   0.7272549374578235   0.6565900357648005   0.2922274751562918   
H   0.6326305108854103   0.601778189510016   0.32367961611192425   
O   0.6666666666666666   0.6666666666666666   0.3333333333333333   
H   0.8302234924481401   0.5051903824237376   0.2596749499392472   
H   0.9017341541281974   0.5249918759717621   0.3459389858062123   
O   0.8333333333333334   0.5   0.3333333333333333   
H   0.7000433292583437   0.8109182687150748   0.10465270133089191   
H   0.7229173161969907   0.8665244078260526   0.20125547447644038   
O   0.6666666666666666   0.8333333333333334   0.16666666666666666   
H   0.573774152659963   0.162259940348786   0.6670185000502667   
H   0.49065353167577597   0.238604286307879   0.6525319210203318   
O   0.5   0.16666666666666666   0.6666666666666666   
H   -0.06785658732899595   -0.0244611767673083   0.6827695549630838   
H   0.04005960761760545   -0.03687732851559814   0.7166412512406497   
O   0.0   0.0   0.6666666666666666   
H   0.43294284656884363   0.6446648466617634   0.18860810496155134   
H   0.5228341539984646   0.7030333450767295   0.22681843087071563   
O   0.5   0.6666666666666666   0.16666666666666666   
H   0.7073899720588396   0.05894754458872867   0.35147080860310875   
H   0.6677984593778276   -0.03752858093716463   0.39699252970249654   
O   0.6666666666666666   0.0   0.3333333333333333   
H   0.5601944745417279   0.4971016890371189   0.7094497667468824   
H   0.47597545429268096   0.4303192135959074   0.6721052173863169   
O   0.5   0.5   0.6666666666666666   
H   0.6481293092018019   0.23757154192885527   0.15712551020954146   
H   0.614539889730596   0.13333371255329962   0.12624536138591969   
O   0.6666666666666666   0.16666666666666666   0.16666666666666666   
H   -0.032865263957650034   0.7075505956412499   0.6146037489529881   
H   -0.028031422004846943   0.5999995850517866   0.651438133132306   
O   0.0   0.6666666666666666   0.6666666666666666   
H   0.6764767362158676   0.6578039020415272   0.07271439034266368   
H   0.6886375615104039   0.6006487154563375   -0.02492144702905667   
O   0.6666666666666666   0.6666666666666666   0.0   
H   0.006104871395747738   0.11367328838505776   0.4488472774154716   
H   0.0022755810315120847   0.22706782349316754   0.457471296642673   
O   0.0   0.16666666666666666   0.5   
H   -0.004939336358602116   0.5541261505354077   0.11658541859095457   
H   0.050378434895111096   0.45636109392153856   0.1347319238610589   
O   0.0   0.5   0.16666666666666666   
H   0.7878468237204431   0.5582071063844231   0.6689202934891311   
H   0.8097497368693819   0.46657577065155276   0.6051134092828861   
O   0.8333333333333334   0.5   0.6666666666666666   
H   0.4641803221130498   0.8068434009589784   0.39230284056498044   
H   0.483352289593467   0.9051664163330904   0.3383363873242763   
O   0.5   0.8333333333333334   0.3333333333333333   
H   0.668497533060264   0.776898680469164   0.4523140847983858   
H   0.5937226805309136   0.8421698284377401   0.5079536070535889   
O   0.6666666666666666   0.8333333333333334   0.5   
H   0.4802338168801107   0.06966710093760636   0.8185698081416182   
H   0.5133320499808514   -0.025187316579000356   0.765142247764006   
O   0.5   0.0   0.8333333333333334   
H   0.7209314238757245   0.21682262805148164   0.8347060266250063   
H   0.6947036080946439   0.11494148800772398   0.8780614501317263   
O   0.6666666666666666   0.16666666666666666   0.8333333333333334   
H   0.8880652995738387   0.3810363981409418   0.8195131269790373   
H   0.7788153842974207   0.3798855963286031   0.8513013234046493   
O   0.8333333333333334   0.3333333333333333   0.8333333333333334   
H   0.23181232158366377   -0.02456136864136535   0.19146488112183524   
H   0.1710173348482713   0.07141707210801039   0.185182663052464   
O   0.16666666666666666   0.0   0.16666666666666666   
H   0.17002673348048572   0.8585752067438108   0.5972856433101166   
H   0.15450074129556549   0.7614564092287124   0.6545066228596158   
O   0.16666666666666666   0.8333333333333334   0.6666666666666666   
H   0.5277892583533286   0.6691504464669693   0.5684379761707022   
H   0.5294725907692609   0.6034561151656556   0.4755467548870965   
O   0.5   0.6666666666666666   0.5   
H   0.20801669635575656   0.6328411514350861   0.11559634075919334   
H   0.20867008357352113   0.6572199011488151   0.2267386252968441   
O   0.16666666666666666   0.6666666666666666   0.16666666666666666   
H   0.32355326714099664   0.7318199738656757   0.03348978188300295   
H   0.3956410503493081   0.6797815008145495   -0.03752223540511394   
O   0.3333333333333333   0.6666666666666666   0.0   
H   0.3145351627743547   0.07097818203161246   0.008419921816078885   
H   0.289579829237044   -0.019148114793789237   -0.056401677310217536   
O   0.3333333333333333   0.0   0.0   
H   0.14375423403683   0.7693749619960681   0.36242827775901876   
H   0.23729920094519805   0.8337391149521245   0.3550830245250717   
O   0.16666666666666666   0.8333333333333334   0.3333333333333333   
H   0.6347478227370543   0.4344372978330478   0.8212963855877204   
H   0.6452404868906979   0.5130978448899446   0.9028425694369827   
O   0.6666666666666666   0.5   0.8333333333333334   
H   0.3967411139310736   0.4857040339325191   0.5351745268359407   
H   0.330479655649537   0.4428900122138516   0.4531761338310363   
O   0.3333333333333333   0.5   0.5   
H   0.7257736081580276   0.3567561503952087   -0.03768168962093928   
H   0.6946091647780729   0.32953929634580087   0.06831537679686278   
O   0.6666666666666666   0.3333333333333333   0.0   
H   0.16873117058597034   0.09631247801814129   0.31079016169665086   
H   0.16602777335808236   0.20185012906848673   0.2683419153381395   
O   0.16666666666666666   0.16666666666666666   0.3333333333333333   
H   0.019073679322831542   0.7123228136131824   0.05489881262244195   
H   0.028446536925140233   0.6030451186438377   0.024602068783164295   
O   0.0   0.6666666666666666   0.0   
H   0.21529871851023843   0.3743052995373044   0.12900514594417267   
H   0.1315401475657428   0.29936919635182924   0.11121638552021891   
O   0.16666666666666666   0.3333333333333333   0.16666666666666666   
H   0.6841004931276173   0.3103951767772359   0.5986073447996112   
H   0.7239722575254078   0.37766215243563384   0.6812678199633113   
O   0.6666666666666666   0.3333333333333333   0.6666666666666666   
H   0.6372867430515438   0.28456817146355884   0.3804602651287545   
H   0.6942724737869022   0.3830566436948435   0.38053164309331666   
O   0.6666666666666666   0.3333333333333333   0.3333333333333333   
H   0.8751651557430982   -0.05006683146938129   0.8680547913205856   
H   0.8237187288643374   0.049586445618773026   0.887286205509588   
O   0.8333333333333334   0.0   0.8333333333333334   
H   0.49524905464313423   0.15603061070358729   0.26035065418250763   
H   0.4911825874150464   0.23994920665799607   0.33708715698288744   
O   0.5   0.16666666666666666   0.3333333333333333   
H   0.019056430383258872   0.09547349980383282   0.16113909239265206   
H   -0.03191610369191384   0.17743914843996988   0.10088304723267005   
O   0.0   0.16666666666666666   0.16666666666666666   
H   -0.02295994662133745   0.7676215296037051   0.4751611528848423   
H   -0.02736986291822745   0.8323421704672471   0.5686445687893541   
O   0.0   0.8333333333333334   0.5   
%ENDBLOCK positions_frac

