%BLOCK lattice_cart
12.686997   0   0
0   12.686997   0
0   0   12.686997
%ENDBLOCK lattice_cart

%BLOCK positions_frac
H   0.8959437269521052   -0.03922860135017641   0.8771784851470551   
H   0.8500030232190209   -0.027568452314397723   0.7536875941713375   
H   0.8274689203157396   0.08466505268540103   0.8199624917631759   
H   0.7571094681601255   -0.030356376365566203   0.8588236193765622   
C   0.8333333333333334   0.0   0.8333333333333334   
H   0.1380895946949728   0.8857438968719547   0.6048781104637121   
H   0.13789657359506352   0.7576596800455327   0.6379069407763539   
H   0.13794682699518987   0.8315494690186849   0.747619310403042   
H   0.2525813108040318   0.8332143732006991   0.6667074317702119   
C   0.16666666666666666   0.8333333333333334   0.6666666666666666   
H   0.4114211946033992   0.5139925127493   0.5329823801412896   
H   0.2857328817874235   0.49937096416468996   0.5715202294256687   
H   0.3073289075309091   0.426982615324058   0.46293825065746846   
H   0.3105310242654469   0.5667568526897229   0.45096002436081234   
C   0.3333333333333333   0.5   0.5   
H   0.9059291895160961   0.2990443819268965   0.8027481838797905   
H   0.7914223482706242   0.26249453250791294   0.857964117308812   
H   0.7728420697970398   0.3720137472694737   0.7861530990813882   
H   0.8511618912018193   0.3815119365038327   0.902197740768717   
C   0.8333333333333334   0.3333333333333333   0.8333333333333334   
H   0.27973711300473203   0.3584134189448219   0.39562118417734093   
H   0.37877654149651374   0.27327298027876507   0.3746735161262937   
H   0.39656820726735953   0.3809537148844036   0.29994183935604607   
H   0.28843876812128183   0.29671959715856233   0.2698884420630189   
C   0.3333333333333333   0.3333333333333333   0.3333333333333333   
H   0.5501206353276555   0.36650192477621885   0.4386069356799645   
H   0.4259607053110508   0.3737323405313233   0.4836462557823413   
H   0.5080036232063112   0.3482623861402499   0.5842283045562274   
H   0.49023590733576666   0.24903092588888498   0.4866168582137307   
C   0.5   0.3333333333333333   0.5   
H   0.30921593333249375   0.13011636999654913   0.9072506433566481   
H   0.2964277667916283   0.11372358230612727   0.776620452369786   
H   0.41364310693587747   0.1690960041855946   0.8029066924789087   
H   0.29789834891955075   0.24467790067414955   0.8270126420118371   
C   0.3333333333333333   0.16666666666666666   0.8333333333333334   
H   -0.07923919546469993   0.8002451847947243   0.4972312062281702   
H   0.025402821435194362   0.8205947271404753   0.4189212329524442   
H   0.06644043894709412   0.7998207338505295   0.5429408388248244   
H   -0.004672280975426592   0.9176768883678914   0.5156740679204874   
C   0.0   0.8333333333333334   0.5   
H   0.22008463078066412   0.7149425596169598   0.546875379041928   
H   0.1923670218847522   0.5878871427442386   0.5226852428414752   
H   0.16799551703126261   0.6597936562785978   0.414370929145115   
H   0.08591728116047978   0.6792346774167713   0.5265127089659916   
C   0.16666666666666666   0.6666666666666666   0.5   
H   0.032224576442819834   0.2964911569879405   -0.07060858733732563   
H   -0.08225451392268955   0.342598618968556   -0.023015023614950086   
H   0.017942478601588898   0.41280807141128995   0.027261242811519558   
H   0.005331115943147957   0.278510243846019   0.06593443677186864   
C   0.0   0.3333333333333333   0.0   
H   0.8612110832244312   -0.04565789645830702   0.23389411227163387   
H   0.8655139781454538   -0.0460851212426726   0.10169044339937275   
H   0.860401888394875   0.07868950667825061   0.14529854189703023   
H   0.7475014272405957   -0.002543102816768865   0.16388127349734838   
C   0.8333333333333334   0.0   0.16666666666666666   
H   0.1515763088541886   0.8883238081269366   0.26907081958213946   
H   0.13415333014499314   0.7609816198529599   0.3003264492750153   
H   0.12798307595836392   0.8346178128837527   0.4100358222939529   
H   0.25143144048531685   0.8243807824889827   0.34410954989617637   
C   0.16666666666666666   0.8333333333333334   0.3333333333333333   
H   0.14171046802684154   0.2793032540145459   0.7713714049513661   
H   0.09188801788996703   0.3474341485477422   0.8732164448967132   
H   0.19364552504908453   0.4139841775415119   0.8211298740104018   
H   0.22045928481828536   0.29286621671466995   0.8867197416740575   
C   0.16666666666666666   0.3333333333333333   0.8333333333333334   
H   0.3882626918735519   0.05916033988861898   0.6960632930918215   
H   0.36101687655130293   -0.06966515822857164   0.7086396228937875   
H   0.33079201651756407   -0.02989340915566693   0.5861603458685413   
H   0.2537459991546366   0.019363401385289747   0.6925945824270496   
C   0.3333333333333333   0.0   0.6666666666666666   
H   0.18370296125732313   0.4187674492076533   -0.022189620297474504   
H   0.15291371992278338   0.4909103126691332   0.08431830127940135   
H   0.09662266228577168   0.5441814070545354   -0.0228731854258981   
H   0.2365056532174961   0.5484234755913421   -0.012610505928180095   
C   0.16666666666666666   0.5   0.0   
H   0.5479539859470373   0.1246525567783994   0.7242563505748535   
H   0.4215502374747424   0.15486930198956994   0.6996484622054663   
H   0.4869459354200789   0.1420937584400968   0.5853825632405433   
H   0.5196236373161114   0.25028912242521617   0.6685480602863152   
C   0.5   0.16666666666666666   0.6666666666666666   
H   0.06744722566476807   0.16929526067252954   0.7801797432924424   
H   -0.04616264342976764   0.2328092068590765   0.8037442032510129   
H   0.0020421895984666784   0.18496697074597127   0.9172515686746809   
H   -0.043427289673709374   0.09357410965998059   0.8209684430233879   
C   0.0   0.16666666666666666   0.8333333333333334   
H   -0.017643373521599358   0.17275856502428377   0.08280402876554473   
H   -0.04408838069319724   0.09581291957247612   0.18709466463810542   
H   -0.027740220685772084   0.22073087566012042   0.2274028449525427   
H   0.08402056266960517   0.15223248453601942   0.17732224386638512   
C   0.0   0.16666666666666666   0.16666666666666666   
H   0.7480806743701907   0.17255015877072752   0.3244614366402677   
H   0.8565297180202712   0.24804473277047095   0.3184713016681349   
H   0.8861659622752001   0.12504680254594297   0.27987454434386566   
H   0.85235008632872   0.1457869198704279   0.4144735894938503   
C   0.8333333333333334   0.16666666666666666   0.3333333333333333   
H   0.5564302927913766   0.30721787761363895   0.8926203211012163   
H   0.47835254389004933   0.25817734130485254   0.7977762468843623   
H   0.5191143837726778   0.3791804893835664   0.7632332584000405   
H   0.43139275688069406   0.36752151222362295   0.8721348346740149   
C   0.5   0.3333333333333333   0.8333333333333334   
H   -0.006973245431231478   0.9188243821579368   0.17156526948604248   
H   -0.022343955166790545   0.8202155353176201   0.08475199805792291   
H   -0.05118143463642607   0.7768826626644261   0.20635450384815981   
H   0.08206003023303533   0.8105556908138427   0.17801004931755693   
C   0.0   0.8333333333333334   0.16666666666666666   
H   0.4410192899427135   0.8641830321083129   0.6123443524929476   
H   0.45502632450092245   0.7712016620374406   0.7053753972663608   
H   0.5314768615107964   0.8750385239724108   0.7348665651544597   
H   0.5646052491251504   0.7984360189039758   0.6220608248782564   
C   0.5   0.8333333333333334   0.6666666666666666   
H   -0.010234526947871745   0.25166353680565645   0.50722000105858   
H   -0.039354085162375776   0.15221624286705537   0.4250081129481261   
H   -0.03794513620916043   0.10759845920174256   0.549522271711886   
H   0.08361110180914762   0.1483826115960662   0.4925020752876208   
C   0.0   0.16666666666666666   0.5   
H   0.18816698732038245   0.2432631371140733   0.36576878950931263   
H   0.18834814182696547   0.17763141445079428   0.2509256284055736   
H   0.0865028296549685   0.13694213539800862   0.32487441100378284   
H   0.21629077237567224   0.10580858978255844   0.3681913955443386   
C   0.16666666666666666   0.16666666666666666   0.3333333333333333   
H   0.5732308701069481   0.020741997205831145   0.5398541228212277   
H   0.5102943932670525   0.041227528742095315   0.42532966966967484   
H   0.4216722321481983   0.027185846220057867   0.5225173808248325   
H   0.49800578919388155   -0.08473289077409123   0.48593933732416605   
C   0.5   0.0   0.5   
H   -0.06142215063649626   0.3354512821162146   0.3933681198716193   
H   0.042465192255267264   0.26233602290073743   0.3565158967942129   
H   0.06491456010045907   0.3892058649199935   0.32657300851728693   
H   -0.03575958154604224   0.32143879603307257   0.2561250811796836   
C   0.0   0.3333333333333333   0.3333333333333333   
H   0.7491507152368136   0.8504641337654272   0.6677457299308802   
H   0.8562485711397732   0.8707998813371027   0.592825678404642   
H   0.8681321063517863   0.7554476318963502   0.6564585914986334   
H   0.8716113256448923   0.8734714734204495   0.7322796753272989   
C   0.8333333333333334   0.8333333333333334   0.6666666666666666   
H   0.8332900490811608   0.7047881486418925   0.7563392255779801   
H   0.7540659807829482   0.6335600002131151   0.8347395148803314   
H   0.8349311055870934   0.7073427819199491   0.9089920582914219   
H   0.8910170434769711   0.6029977330247324   0.8337787135312243   
C   0.8333333333333334   0.6666666666666666   0.8333333333333334   
H   0.714611888540831   0.21038101172428247   0.8896507695869287   
H   0.7013655440154312   0.08837907825904609   0.8402891440417478   
H   0.6680731888661575   0.1771750713343124   0.7480752720300159   
H   0.5852294781371642   0.16446907814851186   0.8606188023538954   
C   0.6666666666666666   0.16666666666666666   0.8333333333333334   
H   0.34089322172066416   0.5855166609309383   0.8366636007927027   
H   0.41448259356589356   0.4775053659175407   0.8163001042865147   
H   0.29153697563899583   0.4560785235303173   0.7724620734583563   
H   0.3109407313432465   0.47015337394683154   0.9107225585517887   
C   0.3333333333333333   0.5   0.8333333333333334   
H   0.48372944065560425   0.0803523834412881   0.140974152883823   
H   0.5242830930503318   0.013880131113067918   0.2479009897250259   
H   0.5648667492266904   -0.048969653248562686   0.13881671521187788   
H   0.42722036770080296   -0.045649374520199654   0.1658910257283905   
C   0.5   0.0   0.16666666666666666   
H   0.10223202864553384   0.622221766779637   0.13125240135345706   
H   0.199256518985918   0.7054609392129692   0.09728188566989836   
H   0.23780000777956053   0.6325842327491019   0.20072217093438263   
H   0.13471027592832507   0.7257679028881703   0.22021267360112787   
C   0.16666666666666666   0.6666666666666666   0.16666666666666666   
H   0.0932804686938113   0.6928725716049489   0.7971524214596464   
H   0.2187941603086174   0.6661953023093532   0.7650409903305637   
H   0.181254832630578   0.5881548559520996   0.8650259646959432   
H   0.19361542697305834   0.7257598732127172   0.8895747695579832   
C   0.16666666666666666   0.6666666666666666   0.8333333333333334   
H   0.33737841119811013   -0.08456702648685911   -0.014608123315322416   
H   0.24867444495629454   0.010321695470960329   0.01037675825707386   
H   0.34986653837107584   0.061331740497146216   -0.057848186050450924   
H   0.37369543750301576   0.018354825727015578   0.07358901283536488   
C   0.3333333333333333   0.0   0.0   
H   0.022033624590657313   0.5710428080647779   0.7903358834063201   
H   -0.08555869280301483   0.5077734769206963   0.8341239235936139   
H   0.01542224190987589   0.4854344038212503   0.9165880013885708   
H   0.022083102273040757   0.43074775449983665   0.7875315323017099   
C   0.0   0.5   0.8333333333333334   
H   0.5172122378273302   0.0950760004899546   0.28906305802464677   
H   0.44296608005297344   0.1368514235046455   0.39025015985434225   
H   0.45784126313244716   0.23506081732869008   0.3028994221237996   
H   0.5707753042360736   0.19260986414599476   0.374554064833353   
C   0.5   0.16666666666666666   0.3333333333333333   
H   0.2856142680025909   0.7361977984073655   0.34975449082526455   
H   0.3825545986850822   0.6959160564974879   0.26927802814902957   
H   0.30438313158890595   0.5934309972686868   0.29898563417685936   
H   0.3825304825182545   0.6488976277250439   0.40148935770187033   
C   0.3333333333333333   0.6666666666666666   0.3333333333333333   
H   0.806269626784366   0.5786582299577234   0.3548224128461041   
H   0.8536773777505974   0.4685035768463647   0.41063428465886653   
H   0.9051087847098893   0.4823107837041274   0.2895529941719427   
H   0.7678691910207951   0.45514540625713973   0.30041140474457056   
C   0.8333333333333334   0.5   0.3333333333333333   
H   0.7115031205151525   0.804812426853586   0.8893953888790912   
H   0.6129496065235434   0.869833006295713   0.8751538437961306   
O   0.6666666666666666   0.8333333333333334   0.8333333333333334   
H   0.8440914431495895   0.0062924321250446965   0.576232356275289   
H   0.811340600827112   0.07199021082729377   0.482666995814311   
O   0.8333333333333334   0.0   0.5   
H   0.8325573992714326   0.7594576439617592   0.022549594638391873   
H   0.8463938058197631   0.825052414342126   -0.0756806065728982   
O   0.8333333333333334   0.8333333333333334   0.0   
H   0.06104585000579853   0.45942223768270324   0.19102961342070376   
H   -0.0036327877260254947   0.47745949462103693   0.09287349460618331   
O   0.0   0.5   0.16666666666666666   
H   0.21207544513003074   0.22204879796750182   0.637725931651956   
H   0.15104768352840595   0.19596740756935904   0.7364106106362297   
O   0.16666666666666666   0.16666666666666666   0.6666666666666666   
H   0.35531799455577745   0.3440120654908924   0.07327580175331419   
H   0.2753205000233121   0.28324771936365306   0.009625290477351283   
O   0.3333333333333333   0.3333333333333333   0.0   
H   0.4984850510032798   0.6851629589622728   0.2416486369862199   
H   0.5166690912369523   0.5913580136857316   0.17084422045815623   
O   0.5   0.6666666666666666   0.16666666666666666   
H   0.859360378662416   0.6150494702012999   0.21790104684875855   
H   0.8584600588084516   0.6352771103582806   0.10071177910092036   
O   0.8333333333333334   0.6666666666666666   0.16666666666666666   
H   0.5557010531538131   0.613176499703868   0.8316308386938296   
H   0.4737939673157201   0.6577391807856162   0.9054460757506317   
O   0.5   0.6666666666666666   0.8333333333333334   
H   0.3351613718803783   0.610456470529512   0.7196173597446864   
H   0.31121723869196377   0.6268405376183639   0.6042850862523212   
O   0.3333333333333333   0.6666666666666666   0.6666666666666666   
H   -0.03361467433642233   0.45186613090927474   0.5501984869071043   
H   0.001831025706024346   0.5650604195624401   0.5415991937827244   
O   0.0   0.5   0.5   
H   0.2936092419370288   0.7147155824705399   0.045607039204051215   
H   0.27773870315309096   0.6437113334814014   -0.04846641667820171   
O   0.3333333333333333   0.6666666666666666   0.0   
H   0.014288515946247207   0.596989622723041   0.6967939239510832   
H   -0.06580681678263366   0.6846879154687822   0.7028799408723865   
O   0.0   0.6666666666666666   0.6666666666666666   
H   0.4652519346615776   0.4753011599397016   0.39774795144958125   
H   0.545765697986885   0.439751560080645   0.31776637643075833   
O   0.5   0.5   0.3333333333333333   
H   0.8868124499623851   0.17207027149499646   -0.055475119752778024   
H   0.801579935668266   0.23697773391944757   -0.003844389502708165   
O   0.8333333333333334   0.16666666666666666   0.0   
H   0.8990641271765955   0.15667645305318453   0.6273428552435467   
H   0.8542077049972756   0.2228617191926299   0.7153809402565434   
O   0.8333333333333334   0.16666666666666666   0.6666666666666666   
H   0.39818168295187445   0.819014112903127   0.8727840018976575   
H   0.28178411704112977   0.8354311448642637   0.8908222997407219   
O   0.3333333333333333   0.8333333333333334   0.8333333333333334   
H   0.12462660011931143   -0.03600245400725099   0.446119021145684   
H   0.16149475143213937   0.07313224841943831   0.47567656878493597   
O   0.16666666666666666   0.0   0.5   
H   0.1534726645038478   0.7674696089326667   -0.038139112301547866   
H   0.13594834059004457   0.8846003331026561   -0.04893651959275519   
O   0.16666666666666666   0.8333333333333334   0.0   
H   0.5161666589865302   0.09497814624899764   -0.023792833998669008   
H   0.5470890150320606   0.17246802743764683   0.06095631754514724   
O   0.5   0.16666666666666666   0.0   
H   0.47308665935321864   0.5591840810163988   0.6249579095331321   
H   0.44870290604791546   0.4451864024485421   0.648479268620565   
O   0.5   0.5   0.6666666666666666   
H   -0.02945123645048   -0.06937250930300573   0.6836013469616067   
H   0.013838106138503267   -0.008385117868529723   0.5911358756673669   
O   0.0   0.0   0.6666666666666666   
H   0.7714678944894038   0.711325318389423   0.4879593988894626   
H   0.8451493001314918   0.6391009976476622   0.42881558743440357   
O   0.8333333333333334   0.6666666666666666   0.5   
H   0.687878367621479   0.8901919278810293   0.45221017115730716   
H   0.7348877292213686   0.7996375283215665   0.5133110150126113   
O   0.6666666666666666   0.8333333333333334   0.5   
H   0.3052068483086504   0.16123103549237222   0.42826396633460384   
H   0.3049546847209368   0.10206150987521569   0.5314249867308753   
O   0.3333333333333333   0.16666666666666666   0.5   
H   0.6524190291263772   0.8202001359396932   0.2414411791885798   
H   0.6113824298928978   0.7905248317960141   0.13383696772469142   
O   0.6666666666666666   0.8333333333333334   0.16666666666666666   
H   0.7149815595451425   0.22242714445647757   0.522872341702216   
H   0.5997741887739548   0.20527764168746956   0.49886299451825195   
O   0.6666666666666666   0.16666666666666666   0.5   
H   0.1913061182897227   0.49410690939925134   0.4063050585358799   
H   0.2064270376826955   0.4426947967798832   0.3001379970235687   
O   0.16666666666666666   0.5   0.3333333333333333   
H   0.828964640473293   0.5492607321726084   0.6073286639983706   
H   0.7707355275824276   0.456592331288334   0.6538606999191051   
O   0.8333333333333334   0.5   0.6666666666666666   
H   0.37040909147457396   0.19471417034474928   0.22835482977621063   
H   0.37298695991190295   0.10149313141092542   0.15455452508949155   
O   0.3333333333333333   0.16666666666666666   0.16666666666666666   
H   0.17679795221341005   0.3255881122235573   0.5761844628207127   
H   0.18653702491228902   0.2627615062632823   0.47567943546430363   
O   0.16666666666666666   0.3333333333333333   0.5   
H   0.5629958619739879   0.8777389434822126   0.005134874254503149   
H   0.44643309091775335   0.8863868574378336   -0.016811115478071466   
O   0.5   0.8333333333333334   0.0   
H   0.22686315594260004   0.5429029294071894   0.6442518256169584   
H   0.1996745350560963   0.43031178169944595   0.6712204153015771   
O   0.16666666666666666   0.5   0.6666666666666666   
H   0.4915715752411318   0.2700064255887766   0.12324584005378403   
H   0.45328141673658695   0.3164423506941849   0.22581708894320712   
O   0.5   0.3333333333333333   0.16666666666666666   
H   0.5379379833638827   0.6776878047371822   0.5663773131880308   
H   0.5116489629463595   0.5910663824078726   0.4892481418157888   
O   0.5   0.6666666666666666   0.5   
H   0.09871158920584852   0.1855054562650911   0.03152635763785646   
H   0.14410795657746628   0.14465952475852148   -0.07052300388026375   
O   0.16666666666666666   0.16666666666666666   0.0   
H   0.6183162158991851   0.5384225678186805   0.879729927658238   
H   0.6953183390238044   0.44783630220573034   0.8825749222162774   
O   0.6666666666666666   0.5   0.8333333333333334   
H   0.4577923796281515   -0.030769234303791897   0.7764257347628982   
H   0.5588155256097642   0.029739827646739797   0.7930471027956061   
O   0.5   0.0   0.8333333333333334   
H   0.13605081777711356   0.31081812789496965   0.23391574913616844   
H   0.11298678768087175   0.3833688245524791   0.14254978497191334   
O   0.16666666666666666   0.3333333333333333   0.16666666666666666   
H   0.6454668917621146   0.26280689476865415   0.6433579820292107   
H   0.7356743745921294   0.3179711213548795   0.6977896880841417   
O   0.6666666666666666   0.3333333333333333   0.6666666666666666   
H   0.6571634645017959   0.2777741974697647   0.28051690271882995   
H   0.6364269682107483   0.2991500080526542   0.39565319118137354   
O   0.6666666666666666   0.3333333333333333   0.3333333333333333   
H   0.6586752440593929   0.1569338361516198   0.09045569011455278   
H   0.6704676246209568   0.093177190498183   0.19015184035691468   
O   0.6666666666666666   0.16666666666666666   0.16666666666666666   
H   0.7363936250100892   0.643523080615341   0.3094748028461255   
H   0.6292853512809563   0.599119323828102   0.33592128766696905   
O   0.6666666666666666   0.6666666666666666   0.3333333333333333   
H   0.6873471401862943   0.596220168497244   0.6906731800082379   
H   0.6640619166632307   0.7045161641737253   0.7339521375205761   
O   0.6666666666666666   0.6666666666666666   0.6666666666666666   
H   0.7862654718345001   0.3475908869515285   0.5595654459472978   
H   0.8096449666449653   0.2626855198643247   0.47964191787434024   
O   0.8333333333333334   0.3333333333333333   0.5   
H   0.7063293353575121   0.39952654814589583   -0.003469120529430035   
H   0.693204577474973   0.3042215754882018   0.06644507970682498   
O   0.6666666666666666   0.3333333333333333   0.0   
H   0.850896868335421   0.574037718074589   -0.013290685185032498   
H   0.8714518898013977   0.48789631996552724   0.06608464537669566   
O   0.8333333333333334   0.5   0.0   
H   0.30222125502919633   -0.06911600744386559   0.3184430723965234   
H   0.287838727040261   0.02405563016321132   0.3909377709040506   
O   0.3333333333333333   0.0   0.3333333333333333   
H   0.5020089995307694   0.7927393049301868   0.3990204138822466   
H   0.45967626248440263   0.8952027594242361   0.35598005671895955   
O   0.5   0.8333333333333334   0.3333333333333333   
H   -0.027661191304649547   0.6571074929136825   0.4048188875727555   
H   0.01995996951932195   0.7412540868405452   0.335573900391593   
O   0.0   0.6666666666666666   0.3333333333333333   
H   0.11542656198353511   -0.05562003515537921   0.8490675995547251   
H   0.2295231343074891   -0.0422988988154929   0.8182810442428176   
O   0.16666666666666666   0.0   0.8333333333333334   
H   -0.02706565296382468   0.6774317684705372   -0.07154206304645987   
H   -0.0358186075993145   0.600950193255394   0.019106968471773723   
O   0.0   0.6666666666666666   0.0   
H   0.4679816735014974   0.44376577825318236   -0.04218107211670369   
H   0.5743024381916984   0.4790007836075508   -0.002210059234831513   
O   0.5   0.5   0.0   
H   -0.014841980492822723   -0.06959558592008988   0.3633811919532015   
H   0.01644504778135801   -0.019149797342924636   0.26032957016085506   
O   0.0   0.0   0.3333333333333333   
H   0.3804324642739536   0.8875804632938535   0.4716164743586308   
H   0.32981311604472346   0.8548013590298819   0.5741177152581138   
O   0.3333333333333333   0.8333333333333334   0.5   
H   0.19000480068096484   0.06464110856701855   0.13140248716242883   
H   0.18965907649469574   0.014093447898278494   0.23905055706216827   
O   0.16666666666666666   0.0   0.16666666666666666   
H   -0.012415237401780027   0.9077906660225068   0.8497245279579094   
H   -0.04881933941768706   0.7994842120680837   0.8827055204485567   
O   0.0   0.8333333333333334   0.8333333333333334   
%ENDBLOCK positions_frac

