%BLOCK lattice_cart
13.19018490509532   0   0
0   13.19018490509532   0
0   0   13.19018490509532
%ENDBLOCK lattice_cart

%BLOCK positions_frac
H   0.6954524652451932   0.5960012500534361   0.6349383800758728   
H   0.7113686048673002   0.7217830604248947   0.6243248748398298   
H   0.679154658715478   0.6929990173478456   0.743994312674448   
H   0.5868014303880162   0.6751303143251752   0.6472034146932564   
C   0.6666666666666666   0.6666666666666666   0.6666666666666666   
H   0.1518621813569243   0.180393367171931   -0.08013309168417812   
H   0.09228944295289515   0.1408402200707408   0.025098420742585982   
H   0.18247036871670208   0.22494517244998805   0.05641601049426996   
H   0.2213076548096799   0.1051673975345378   0.007817274837279472   
C   0.16666666666666666   0.16666666666666666   0.0   
H   0.3244137013661699   0.49967101686420107   0.08451291197110077   
H   0.3404855138193763   0.4190399851664453   0.18160754305857107   
H   0.27462392780206957   0.5204787053731366   0.2210976854272813   
H   0.40391886907468283   0.5380702097813034   0.18659776664199945   
C   0.3333333333333333   0.5   0.16666666666666666   
H   0.7755647157787171   0.2878300990369034   0.7956351905500981   
H   0.8690863165019327   0.27615991306541093   0.8811018552313977   
H   0.8187420223817228   0.39274402348248794   0.8888884502500228   
H   0.8877886980390929   0.3605800288580569   0.777466184554662   
C   0.8333333333333333   0.3333333333333333   0.8333333333333333   
H   0.7923970940549545   0.290465281702812   0.22424671475677144   
H   0.8106446115597614   0.2927431317044401   0.09835440634013567   
H   0.9154200834193277   0.33450805911412956   0.15721717172926844   
H   0.804131592234495   0.41058700226288797   0.1638318071231128   
C   0.8333333333333333   0.3333333333333333   0.16666666666666666   
H   0.8508639747748747   0.048826556066162104   0.8976571353686493   
H   0.9004863044348672   -0.048139046111132955   0.8319127043672553   
H   0.830155207335369   0.02416671379347072   0.7543727296472036   
H   0.766868534668969   -0.0458803611475557   0.8508356324505315   
C   0.8333333333333333   0.0   0.8333333333333333   
H   0.47903666155317354   0.3723379842423953   0.0968950168113098   
H   0.53880897542581   0.3940711024755188   0.20708565107921661   
H   0.5559058964278758   0.27277709418175816   0.17269826009836847   
H   0.4316629244619944   0.3119987263064572   0.2079436108950635   
C   0.5   0.3333333333333333   0.16666666666666666   
H   -0.030066671424853367   0.8291320860585579   0.9101919845424106   
H   0.055862541137311934   0.7724729351771342   0.8354059907733246   
H   0.04581944215923978   0.8951420703248634   0.8031809499011658   
H   -0.05957247651975737   0.8142689114464912   0.7793280064262962   
C   0.0   0.8333333333333333   0.8333333333333333   
H   0.8962238662089433   0.053078662456148396   0.17417292681407526   
H   0.8245203912870798   -0.024475359819584964   0.24510260415136637   
H   0.8366819728254535   -0.07302625115783201   0.1281327759949794   
H   0.7655537524530392   0.040751250560144676   0.14270479135632227   
C   0.8333333333333333   0.0   0.16666666666666666   
H   0.35270425670037303   0.587068022071088   0.344183705740192   
H   0.4086247558384671   0.6998020260641626   0.32544935402940867   
H   0.300734613648119   0.716256581646296   0.39084047447346   
H   0.29173969904664154   0.675523931911516   0.26247836939911195   
C   0.3333333333333333   0.6666666666666666   0.3333333333333333   
H   0.36543617844028875   0.6523187935380164   -0.07478270754416078   
H   0.3790457751105108   0.731128030818817   0.024166354158716593   
H   0.3409129922637831   0.6170596010074186   0.06565512380682563   
H   0.25449751168812107   0.690159541736081   -0.007868006190240973   
C   0.3333333333333333   0.6666666666666666   0.0   
H   0.517410129087256   0.2979954268659277   0.4273568499679531   
H   0.42960965503354753   0.2946183534596009   0.5193715550174169   
H   0.4775731327393981   0.4121421604444529   0.5107290199532629   
H   0.5584078398247886   0.3135411860814411   0.5550063871661624   
C   0.5   0.3333333333333333   0.5   
H   0.816258850694364   0.588186955147818   0.48054995122262345   
H   0.8057689763783814   0.7055134120843646   0.43247190161847404   
H   0.909118892122608   0.698988166671377   0.5063857021035595   
H   0.7880664126738303   0.6893778667031066   0.5652994239011613   
C   0.8333333333333333   0.6666666666666666   0.5   
H   0.6601265515574389   0.8600099002173054   0.08872761901688134   
H   0.7353823230768314   0.8725368386132583   0.19054450603289896   
H   0.6845235270660409   0.7559214926054342   0.18941412645250075   
H   0.6024394560430308   0.8609171236656122   0.2107450899747262   
C   0.6666666666666666   0.8333333333333333   0.16666666666666666   
H   0.2880527442143343   0.7728225344351879   0.5334218332928806   
H   0.3000587180202637   0.8994389035568532   0.5367663029974866   
H   0.3307291766980247   0.8569177962090104   0.42084256854851165   
H   0.4120552576951729   0.8252402278063381   0.5237963808721036   
C   0.3333333333333333   0.8333333333333333   0.5   
H   0.6795424991403725   0.683076075391426   0.253371769327085   
H   0.6410972567894813   0.740517930714187   0.3601867046678308   
H   0.725541128705794   0.6497576885934945   0.38880216832233266   
H   0.6052609557072124   0.6118589015660812   0.34070591911821935   
C   0.6666666666666666   0.6666666666666666   0.3333333333333333   
H   0.8431564530804327   0.10557170717761447   0.2785627233460627   
H   0.8950576150312752   0.21701468057037784   0.3113311057248091   
H   0.8467392685361278   0.16065150645949572   0.41465372575696247   
H   0.760970205452859   0.20428408139369236   0.32001359957016956   
C   0.8333333333333333   0.16666666666666666   0.3333333333333333   
H   0.6249587250916983   0.846370190864841   0.7631949313683991   
H   0.7334634069066279   0.880224230831553   0.8203584845851174   
H   0.7020900553935597   0.7620080288625082   0.8553966954560928   
H   0.6236444831193956   0.8636358797038362   0.89704953913061   
C   0.6666666666666666   0.8333333333333333   0.8333333333333333   
H   0.46800463441173235   0.3664894996838889   0.9019326969507888   
H   0.51312484382523   0.4012857094844335   0.7881767111733974   
H   0.45878828400104427   0.28660704897837525   0.7790456156642922   
H   0.5723718015496778   0.29762645875397553   0.8511167223000222   
C   0.5   0.3333333333333333   0.8333333333333333   
H   0.3271356545924351   0.7004333674575819   0.7418351851490335   
H   0.38313595846290843   0.6026977615551504   0.6826849432265635   
H   0.3721853157951549   0.7005050874008338   0.6020571300956906   
H   0.2593236693626011   0.638705403924404   0.6427994318098602   
C   0.3333333333333333   0.6666666666666666   0.6666666666666666   
H   0.37996677125950173   0.18181631297100254   0.4334814450025241   
H   0.25909365165761794   0.19013130031301353   0.4723090609143772   
H   0.3368596853877538   0.20816190613650487   0.5713765887209634   
H   0.3326636178556837   0.08546193294554226   0.5153052336595287   
C   0.3333333333333333   0.16666666666666666   0.5   
H   0.1835011453130325   0.41034462129417026   0.8581278756810075   
H   0.08898575352675409   0.3424777944767054   0.8066694619141411   
H   0.15818542789839213   0.2678404780134265   0.883008900425353   
H   0.215525935354015   0.31354216154806525   0.7696938105694406   
C   0.16666666666666666   0.3333333333333333   0.8333333333333333   
H   0.7668792110394818   0.6758961102479975   0.8815782758272915   
H   0.8387084565546046   0.5842606552809032   0.830289517839899   
H   0.9108124021811277   0.6862910158113781   0.8543282442890312   
H   0.8169223488368519   0.6960462716588949   0.7578586629248486   
C   0.8333333333333333   0.6666666666666666   0.8333333333333333   
H   0.5917969214488082   0.34197385275336806   0.2994398214161911   
H   0.6473940034011428   0.2933056592410684   0.4030130092247269   
H   0.7130072310566542   0.39482936145989683   0.3633283011043918   
H   0.7131544534387695   0.2845797172001677   0.2854702152789908   
C   0.6666666666666666   0.3333333333333333   0.3333333333333333   
H   0.021592255397729826   0.5797649039469007   0.16617465031185064   
H   -0.07839564545801128   0.5052094168475016   0.1410562737715302   
H   -0.009044744987593962   0.4532846574462784   0.23422979886989076   
H   0.04468493963142762   0.45897949222955015   0.11054642444246893   
C   0.0   0.5   0.16666666666666666   
H   0.44026351547995185   -0.0355848741247354   0.2113228714497121   
H   0.5637246562631333   -0.005817322744593128   0.218956574059425   
H   0.5036850445021761   0.08015577413719588   0.14690863553002964   
H   0.5151695389143836   -0.045691913292862596   0.09950237836049146   
C   0.5   0.0   0.16666666666666666   
H   -0.04269232403899312   0.43217939920483783   0.8534986265582124   
H   0.06844319526522881   0.4661622712295252   0.8017193394626747   
H   0.032809093059339114   0.5536113006130725   0.8869831174345847   
H   -0.04021525185301049   0.5413264060616689   0.7741406888972424   
C   0.0   0.5   0.8333333333333333   
H   0.29206113875501244   0.4002102949179928   0.6411130869016767   
H   0.28558594698374085   0.27324884007726863   0.6360244043177936   
H   0.3405051647280713   0.3086310547839743   0.7451986330486937   
H   0.40742604787814246   0.3310183128801485   0.6301451961788117   
C   0.3333333333333333   0.3333333333333333   0.6666666666666666   
H   0.183782801750216   0.7374756229842493   0.5390132938871977   
H   0.09206170902699468   0.6496506105302362   0.5312003462169427   
H   0.20523876935362323   0.5946472874933483   0.5124221331786922   
H   0.16006233479920612   0.6807834892777758   0.4188457912683303   
C   0.16666666666666666   0.6666666666666666   0.5   
H   0.021893163975091622   0.1972371716282706   0.7597463706805317   
H   0.015318562610600142   0.23162609602458373   0.88206239706281   
H   0.040054210717386254   0.10707123095440653   0.8742350658270258   
H   -0.08105207254310688   0.15055954170948294   0.8335051966310509   
C   0.0   0.16666666666666666   0.8333333333333333   
H   0.7331922591948405   0.28578770987546814   -0.011944316794641835   
H   0.6966628778745227   0.4072884225434693   -0.02144247112641222   
H   0.6331106942602931   0.35112323777599935   0.07339225770267596   
H   0.6071524374214344   0.3113025377907322   -0.05293021859031515   
C   0.6666666666666666   0.3333333333333333   0.0   
H   0.8570621639223611   0.40049297796784894   0.4581021216962565   
H   0.9066756106584412   0.29956143701116383   0.5175862688050674   
H   0.7938657597870382   0.26827996870608917   0.46776216719512453   
H   0.7960208452987649   0.3562878997565955   0.5700697765937834   
C   0.8333333333333333   0.3333333333333333   0.5   
H   0.1609903908268591   -0.08160465298443763   0.8216129246889033   
H   0.13229100218973067   0.007143693392748672   0.9081410121597213   
H   0.12440862912785679   0.05740635749096408   0.7915281200471812   
H   0.24626974943613725   0.021818945864109422   0.8373570492637114   
C   0.16666666666666666   0.0   0.8333333333333333   
H   0.6563664372352273   0.9148838881398397   0.4914958975004292   
H   0.6199292862076126   0.8054389147568367   0.43781940692613713   
H   0.6377515268423778   0.7877079335036232   0.5625391481732316   
H   0.7457463245891868   0.813902580978483   0.48593724633316127   
C   0.6666666666666666   0.8333333333333333   0.5   
H   0.5588876703236371   0.10870646073589858   0.33466159807730705   
H   0.4377389891240017   0.12605524210046143   0.3694330036131952   
H   0.46239664636061995   0.19513932402661358   0.26547905526004395   
H   0.5227767801164478   0.23022909471880063   0.3809772574218966   
C   0.5   0.16666666666666666   0.3333333333333333   
H   0.4870354936363195   0.8532184919210549   0.4124876731865577   
H   0.5714729222053448   0.8723524745608662   0.3192608252339554   
H   0.455110459771831   0.8600569214525469   0.26930453909940516   
H   0.5113847392550538   0.7517374977724998   0.3268978996932157   
C   0.5   0.8333333333333333   0.3333333333333333   
H   0.1835752478572879   0.8027829307327395   -0.0748977987525288   
H   0.15987074871132628   0.9138147233546549   -0.01747766672907735   
H   0.21931266933445148   0.8358873138886447   0.06364576232035546   
H   0.09365163014236377   0.8044338500991713   0.025739692792758825   
C   0.16666666666666666   0.8333333333333333   0.0   
H   0.5393490142787195   0.4806805057949594   0.4033855973500446   
H   0.4897729554988929   0.4249354661510025   0.300323777236385   
H   0.533209401456453   0.5404462225237041   0.2693790823926832   
H   0.4261840757182238   0.5325529857999725   0.3512336102263418   
C   0.5   0.5   0.3333333333333333   
H   0.01786832815859217   0.2920559296024853   0.06932392274655215   
H   0.04557306628826196   0.2915788054216296   -0.054850364655751674   
H   0.023064023823007606   0.4108843444563457   -0.01681662730165127   
H   -0.08013491298981083   0.3239026586299984   -0.0178428016204805   
C   0.0   0.3333333333333333   0.0   
H   0.7217168047626257   0.20356738138658106   0.783970118044134   
H   0.7009313421734523   0.18022536631824979   0.9072995496153992   
H   0.6530881067457639   0.08525667930140074   0.8374496596778048   
H   0.5944044818816187   0.206485400668231   0.8286908611991427   
C   0.6666666666666666   0.16666666666666666   0.8333333333333333   
H   0.03662287464381533   0.5983330957035897   0.304729214623434   
H   0.05672954495466809   0.723609223102657   0.3141444961960067   
H   -0.012963111524347794   0.6842311094485217   0.4130349993402792   
H   -0.06910209279244525   0.6809889104981085   0.29033703607124917   
C   0.0   0.6666666666666666   0.3333333333333333   
H   0.3107804227274832   0.0381244799718247   0.7364291044465706   
H   0.26722569064163537   0.014493932972616433   0.6192471247072108   
H   0.3413304363382236   -0.0817042647216731   0.6572132575074036   
H   0.3992427121911591   0.038073738207657686   0.6344913389700785   
C   0.3333333333333333   0.0   0.6666666666666666   
H   0.4017024297924517   0.30617456025740936   0.29569060270328024   
H   0.32116389519006666   0.404638951553185   0.2933793465425954   
H   0.32881855598035276   0.35880403865426524   0.411817519197874   
H   0.27074843363663476   0.2817688147857573   0.31742301492597996   
C   0.3333333333333333   0.3333333333333333   0.3333333333333333   
H   0.7804482338914138   -0.057114144011799005   0.5277497438858502   
H   0.8997850370726705   -0.016996426372370522   0.5460890446377492   
H   0.8266091241313551   0.08144107752394475   0.5122899705963582   
H   0.8504538180358401   -0.014576480730310796   0.42048067726657495   
C   0.8333333333333333   0.0   0.5   
H   0.3584766185257172   0.013972341312413592   0.07746932530296341   
H   0.25133599862452766   0.00014503647799267203   0.010262725758035416   
H   0.34342744641928524   -0.07070077908000985   -0.041574225108835794   
H   0.35523771684129907   0.06359759685778026   -0.0480046990612764   
C   0.3333333333333333   0.0   0.0   
H   0.5114152467120828   0.18855118515629005   -0.0788648684009053   
H   0.4582499195664307   0.09600297340649955   -0.009616689323046509   
H   0.4513390540179066   0.2059631529902201   0.054007462203505385   
H   0.5731285610308872   0.15093902949525073   0.0351249550244353   
C   0.5   0.16666666666666666   0.0   
H   0.791004518868511   0.18079378476454638   0.597113784086836   
H   0.7758442304356299   0.1284218578522689   0.7120676041204235   
H   0.8587623164030266   0.22460674916465087   0.7198194759534816   
H   0.8954134532667174   0.11440824270370764   0.651045421233707   
C   0.8333333333333333   0.16666666666666666   0.6666666666666666   
H   -0.04707632411578176   0.602780928128072   -0.023050804628834357   
H   -0.053835131154189614   0.7096708959099193   0.04562151242251269   
H   0.028229483439733676   0.7258956413264246   -0.05023875297409421   
H   0.06152711576443303   0.6396545156632069   0.04810057378856136   
C   0.0   0.6666666666666666   0.0   
H   0.1305022082118637   0.6330582063569588   0.8888558247021726   
H   0.18059632008617482   0.7328615354187575   0.8640635759947097   
O   0.16666666666666666   0.6666666666666666   0.8333333333333333   
H   0.04546092625642503   0.7888088898657871   0.5383539023481887   
H   -0.06228710942128239   0.8271797587386208   0.5400324022158266   
O   0.0   0.8333333333333333   0.5   
H   0.14559247365097266   -0.03692584797203812   0.43906968038977295   
H   0.14917262061217218   -0.04933532422577392   0.5527269176389272   
O   0.16666666666666666   0.0   0.5   
H   0.33088933198470305   0.49766127307423474   0.4257793767117534   
H   0.3343610944570277   0.42745839092564275   0.5160250543679882   
O   0.3333333333333333   0.5   0.5   
H   -0.025751976744090403   0.4026860267396304   0.3264643218625899   
H   -0.036023560757018014   0.3112709183259414   0.394453678734421   
O   0.0   0.3333333333333333   0.3333333333333333   
H   0.45253211807513194   0.21081606834296215   0.6303655065651889   
H   0.544015520271362   0.2172061267262157   0.6987375359977557   
O   0.5   0.16666666666666666   0.6666666666666666   
H   -0.05845248655867044   -0.043482673352835025   0.6812511666827906   
H   -0.02196602253837734   0.06360312218347916   0.6981671493594467   
O   0.0   0.0   0.6666666666666666   
H   0.16628387977270284   0.11417446027679327   0.6140875315459938   
H   0.1893862544416484   0.22542642967965734   0.6272807010251682   
O   0.16666666666666666   0.16666666666666666   0.6666666666666666   
H   0.5362827487243705   0.6126760544617018   0.5358987415692876   
H   0.5196531275112756   0.7257548296360595   0.5405276113711286   
O   0.5   0.6666666666666666   0.5   
H   0.18877156949285775   0.887358615521719   0.2873682828815916   
H   0.09945170610255866   0.8182370687337538   0.3055053693577545   
O   0.16666666666666666   0.8333333333333333   0.3333333333333333   
H   0.7408812764423998   0.6694498787592832   -0.002142226366282887   
H   0.656236342906577   0.5981919568007941   0.026880590815037648   
O   0.6666666666666666   0.6666666666666666   0.0   
H   0.6658923771761392   0.4566518683761148   0.22700308740923647   
H   0.7250602118083317   0.47192645716190057   0.13030440895586234   
O   0.6666666666666666   0.5   0.16666666666666666   
H   0.23048527751418726   0.4628135895345654   0.6586355089848526   
H   0.14998871001968272   0.4836354541679519   0.737194612257853   
O   0.16666666666666666   0.5   0.6666666666666666   
H   0.6225874983399737   -0.036506372416770655   0.7140423503041229   
H   0.6446571524181619   -0.02929860099981466   0.602034499988458   
O   0.6666666666666666   0.0   0.6666666666666666   
H   0.45120508957505717   0.818087788909646   -0.05391450453605604   
H   0.5047944214996136   0.9072106324724686   -0.006269122898139311   
O   0.5   0.8333333333333333   0.0   
H   0.5004108447984701   0.5040304626339186   0.740853796851284   
H   0.5581175753562031   0.4552076231317001   0.6549990140867568   
O   0.5   0.5   0.6666666666666666   
H   0.28240433006779864   0.12380708359225899   0.19967327922518782   
H   0.31198671905383313   0.23388373819441394   0.1900403925476033   
O   0.3333333333333333   0.16666666666666666   0.16666666666666666   
H   0.19919556031175303   0.23104128603625954   0.35116373340646456   
H   0.1443945559991294   0.1434881194121892   0.4003172996320391   
O   0.16666666666666666   0.16666666666666666   0.3333333333333333   
H   0.8128054853075399   0.7379406184574173   0.1623336585797937   
H   0.8079559242913762   0.6410655524501723   0.10169964604302698   
O   0.8333333333333333   0.6666666666666666   0.16666666666666666   
H   0.12490615251196513   0.438579559482101   0.0019320071540819773   
H   0.21973906209523927   0.47906180074993343   -0.04759260828278862   
O   0.16666666666666666   0.5   0.0   
H   0.8784209022004276   0.5286853294072915   0.6150487752144636   
H   0.7671582371032819   0.5215071297753088   0.6406197145360873   
O   0.8333333333333333   0.5   0.6666666666666666   
H   0.8026382196365051   0.8437872108295299   -0.06684811252350006   
H   0.7761596412875622   0.803475352610347   0.03687565094371   
O   0.8333333333333333   0.8333333333333333   0.0   
H   0.6328810433218254   0.1544972859965393   0.4349570792720125   
H   0.6083718661193227   0.18364605348129234   0.5428200929478898   
O   0.6666666666666666   0.16666666666666666   0.5   
H   0.9052600182784264   0.8281454668293888   0.3512157756013174   
H   0.8358382813459253   0.8161222719779962   0.2611000424627226   
O   0.8333333333333333   0.8333333333333333   0.3333333333333333   
H   0.3053679268793518   0.764593833975146   0.8297331975899739   
H   0.31282462470518135   0.8529520933067056   0.9019965755742441   
O   0.3333333333333333   0.8333333333333333   0.8333333333333333   
H   0.0064356574737692894   0.32267190076208263   0.5934200976280406   
H   -0.06491738278537235   0.36934461479177383   0.6696774352628305   
O   0.0   0.3333333333333333   0.6666666666666666   
H   0.6985783356272486   0.5484074538419818   0.45354025931833175   
H   0.6904190261995371   0.5260096758116972   0.5654176267401447   
O   0.6666666666666666   0.5   0.5   
H   -0.03139388799085519   0.06392338680043463   0.31215862851128495   
H   -0.01806343271232243   -0.04381670022155969   0.27611486701464744   
O   0.0   0.0   0.3333333333333333   
H   0.6341655519382304   0.5664193081379679   0.8261016837702041   
H   0.6404901378620909   0.4652431002604986   0.7731096588542492   
O   0.6666666666666666   0.5   0.8333333333333333   
H   0.5347286899832034   0.7281510852516757   0.18976922217109427   
H   0.48818520058868187   0.6323536526841841   0.2314985360969823   
O   0.5   0.6666666666666666   0.16666666666666666   
H   0.8992618776969798   0.13544473763530598   -0.014098293980924676   
H   0.8526085289521154   0.23830967402750838   0.003986231011028091   
O   0.8333333333333333   0.16666666666666666   0.0   
H   0.6913267145718431   0.3006578756245922   0.7286694102217699   
H   0.6914893109084425   0.28578930214442555   0.6152512493419419   
O   0.6666666666666666   0.3333333333333333   0.6666666666666666   
H   0.64892859528368   -0.07160927663918366   0.32452333728644717   
H   0.637612637958143   0.013218000945405704   0.40042499879434834   
O   0.6666666666666666   0.0   0.3333333333333333   
H   -0.06061444759463485   0.8725178009507015   0.18429079637175874   
H   -0.005792528776729537   0.7767730353322243   0.21449472336895936   
O   0.0   0.8333333333333333   0.16666666666666666   
H   0.5364842166913871   0.004513470666273707   0.897898604357947   
H   0.4800924803466855   0.07094201941977453   0.8237905743288079   
O   0.5   0.0   0.8333333333333333   
H   0.35618838771367745   0.7844804784812969   0.1155668744009578   
H   0.3597334326088779   0.8965912956100469   0.13800294962995813   
O   0.3333333333333333   0.8333333333333333   0.16666666666666666   
H   0.1696839210732682   0.7407201234563039   0.16145845959778107   
H   0.22158920850349714   0.6540297308110391   0.2150811888463142   
O   0.16666666666666666   0.6666666666666666   0.16666666666666666   
H   0.3125890379809447   -0.06653590838993197   0.35907805730894954   
H   0.27384957975748503   0.04080029190329106   0.3511424026143265   
O   0.3333333333333333   0.0   0.3333333333333333   
H   0.7198983509861736   -0.030577879494527924   -0.04185122193733071   
H   0.6103893587898711   -0.046729901080337644   -0.01301248134228986   
O   0.6666666666666666   0.0   0.0   
H   0.5025306897051152   0.03897924546534726   0.4367990685188118   
H   0.5658950642772087   -0.034244151881284046   0.49769299472144   
O   0.5   0.0   0.5   
H   0.5631385762480665   0.46148599279733876   -0.007094726638966883   
H   0.5207126775644523   0.565647622823674   -0.02795564903973598   
O   0.5   0.5   0.0   
H   -0.006060634146533316   -0.07066266047953873   0.022140479561575235   
H   -0.06893816087294834   0.012656694655830577   -0.02464714513621782   
O   0.0   0.0   0.0   
H   0.3050048031844376   0.13865031805010258   0.8960447541218904   
H   0.3141249254991799   0.2381024438919913   0.8402695072218574   
O   0.3333333333333333   0.16666666666666666   0.8333333333333333   
H   0.7910838311754663   0.4405711079189299   -0.0142593850130407   
H   0.7895495608081772   0.554410595705631   -0.025349793804782042   
O   0.8333333333333333   0.5   0.0   
H   0.1754103633112868   0.8711714009320186   0.7300067970494295   
H   0.23089767737611744   0.7960920726577472   0.6639081391506386   
O   0.16666666666666666   0.8333333333333333   0.6666666666666666   
H   0.1579957941942515   0.07368719795469673   0.17055980623180828   
H   0.14697510080069587   -0.012462610591229762   0.0961183195668322   
O   0.16666666666666666   0.0   0.16666666666666666   
H   -0.025062538000334426   0.6717913598556012   0.7364215977914431   
H   -0.013859147448105602   0.7353609936239413   0.6419855568168252   
O   0.0   0.6666666666666666   0.6666666666666666   
H   -0.032893309038873775   0.4548775654055431   0.5490116294797809   
H   -0.010803335312995961   0.5659014293270844   0.5325642943464692   
O   0.0   0.5   0.5   
%ENDBLOCK positions_frac

