%BLOCK lattice_cart
6   0   0
0   6   0
0   0   6
%ENDBLOCK lattice_cart

%BLOCK positions_frac
C   0.0   0.0   0.0   
C   0.5   0.5   0.5   
H   -0.17491021365984005   -0.008565470588508548   -0.04833040087609745   
H   -0.013865690761445906   0.08017702401160878   0.16242587607314188   
H   0.12586125047266264   0.10479464689626483   -0.07861173824005312   
H   0.06547782117489424   -0.16817729363560774   0.020780534578516443   
H   0.5455523956782932   0.4960455788425781   0.6758184278710732   
H   0.5678904091741084   0.3410471786777329   0.4440744180750764   
H   0.5702618045507813   0.6122227627811759   0.3756130709728491   
H   0.319040310581205   0.4975863724396896   0.48417145031182146   
%ENDBLOCK positions_frac

