%BLOCK lattice_cart
5.16   0   0
0   5.16   0
0   0   5.16
%ENDBLOCK lattice_cart

%BLOCK positions_frac
H   0.08336767981042978   0.4268591961780304   0.32021479098394007   
H   0.025063929658224127   0.7079986648434582   0.4729662534029622   
H   0.08341025635654568   0.4752388542769395   0.6924891773546326   
H   -0.2060837778804975   0.45400079092711176   0.5060014882168513   
C   0.0   0.5   0.5   
H   -0.017615330479298627   0.16086736712800206   -0.09940794218935857   
H   0.14112860709330788   -0.08465181919353802   -0.09480155279340337   
O   0.0   0.0   0.0   
H   0.333073692398199   -0.07335448832105543   0.5531533208604902   
H   0.5328500623045866   0.1201780502835509   0.6433480320114031   
O   0.5   0.0   0.5   
H   0.6527881680699615   0.5326888323338755   0.10797112847139329   
H   0.5665167123823791   0.3641633072804682   -0.11486717777403828   
O   0.5   0.5   0.0   
%ENDBLOCK positions_frac

