%BLOCK positions_frac
H   -0.41139053084480637   14.419176091515155   0.20691178420693823   
H   0.13406927470692148   15.509923439026185   1.359725644114306   
H   0.5304206467118483   16.068906032906206   -0.17216208702605817   
H   1.3461526614922077   14.602742197996868   0.42309982858555073   
C   0.39550587968760786   15.133433915735422   0.3707835121225158   
H   11.075301855042078   12.174054543476727   3.566546808807393   
H   9.764342805487807   11.288915810103845   3.0060543786674248   
H   9.306683105518493   12.888104868485284   3.2282658224467182   
H   9.701054983784445   11.920191157370214   4.669447881861739   
C   9.988324069109543   12.145123897323463   3.6423248438990985   
H   15.588825757906013   0.38929929133193575   0.9590007047201794   
H   14.339531888447606   0.9656161424980829   1.5783766462175413   
O   15.31491218218673   1.0263879815897126   1.6514524025174386   
H   2.812234126873118   1.8060175084992898   17.36765065481923   
H   3.856549003381017   1.0507751996372483   16.58310088857161   
O   3.323752306819963   1.8718412664600275   16.53433415763956   
H   1.8922126122731648   0.5442814397367441   5.0025723645452045   
H   2.3846638558077657   -0.3682991644322059   3.90658365304037   
O   1.591715654795226   0.15023331912819793   4.1570975528616305   
H   3.7654956485425615   4.19913943778989   1.2633035574454676   
H   3.12372366656046   5.494932619403764   0.8325465543266257   
O   3.726745239032919   5.143936347116254   1.5207083085480553   
H   4.950315976689922   5.403163149564896   5.557380516847043   
H   3.6268880556562406   4.740226771508038   5.849881352038145   
O   4.588071329020084   4.551393314813383   5.879354062098725   
H   1.913596749728276   0.33788971555344527   0.42549789834686946   
H   1.828871590208728   0.825034152588357   1.8509854594713058   
O   2.317171634315912   1.0039750445639237   1.0203572489559687   
H   -0.41139053084480637   14.419176091515155   0.20691178420693823   
H   0.13406927470692148   15.509923439026185   1.359725644114306   
H   0.5304206467118483   16.068906032906206   -0.17216208702605817   
H   1.3461526614922077   14.602742197996868   0.42309982858555073   
C   0.39550587968760786   15.133433915735422   0.3707835121225158   
H   11.075301855042078   12.174054543476727   3.566546808807393   
H   9.764342805487807   11.288915810103845   3.0060543786674248   
H   9.306683105518493   12.888104868485284   3.2282658224467182   
H   9.701054983784445   11.920191157370214   4.669447881861739   
C   9.988324069109543   12.145123897323463   3.6423248438990985   
H   15.588825757906013   0.38929929133193575   0.9590007047201794   
H   14.339531888447606   0.9656161424980829   1.5783766462175413   
O   15.31491218218673   1.0263879815897126   1.6514524025174386   
H   2.812234126873118   1.8060175084992898   17.36765065481923   
H   3.856549003381017   1.0507751996372483   16.58310088857161   
O   3.323752306819963   1.8718412664600275   16.53433415763956   
H   1.8922126122731648   0.5442814397367441   5.0025723645452045   
H   2.3846638558077657   -0.3682991644322059   3.90658365304037   
O   1.591715654795226   0.15023331912819793   4.1570975528616305   
H   3.7654956485425615   4.19913943778989   1.2633035574454676   
H   3.12372366656046   5.494932619403764   0.8325465543266257   
O   3.726745239032919   5.143936347116254   1.5207083085480553   
H   4.950315976689922   5.403163149564896   5.557380516847043   
H   3.6268880556562406   4.740226771508038   5.849881352038145   
O   4.588071329020084   4.551393314813383   5.879354062098725   
H   1.913596749728276   0.33788971555344527   0.42549789834686946   
H   1.828871590208728   0.825034152588357   1.8509854594713058   
O   2.317171634315912   1.0039750445639237   1.0203572489559687   
%ENDBLOCK positions_frac

