# CELL file written 11:14:36 (GMT+1.0) 14th June 2019 from run castep

%BLOCK lattice_cart
   ANG
       4.59648838429057      -0.425153111441320E-70   0.104064893554202E-34
     -0.425153111441320E-70    4.59648838429056      -0.127275885442551E-34
      0.105611177262288E-34  -0.129167057588800E-34    5.90052208442185    
%ENDBLOCK lattice_cart

%BLOCK cell_constraints
      1   1   3
      0   0   0
%ENDBLOCK cell_constraints

%BLOCK positions_frac
   H              0.879735622689203       0.359950444288615       0.214415776437152
   H              0.120264377310797       0.640049555711386       0.714415776437152
   H              0.140049555711385       0.379735622689203       0.464415776437152
   H              0.859950444288614       0.620264377310797       0.964415776437152
   H              0.620264377310797       0.859950444288614       0.035584223562848
   H              0.379735622689203       0.140049555711385       0.535584223562848
   H              0.359950444288615       0.879735622689203       0.785584223562848
   H              0.640049555711386       0.120264377310797       0.285584223562848
   H              0.136093199139067       0.043531201683739       0.334014060784463
   H              0.863906800860932       0.956468798316260       0.834014060784464
   H              0.456468798316261       0.636093199139068       0.584014060784464
   H              0.543531201683740       0.363906800860933       0.084014060784464
   H              0.363906800860933       0.543531201683740       0.915985939215536
   H              0.636093199139068       0.456468798316261       0.415985939215537
   H              0.043531201683739       0.136093199139067       0.665985939215536
   H              0.956468798316260       0.863906800860932       0.165985939215536
   H              0.172265506705735       0.270027327894797       0.148605046323253
   H              0.827734493294264       0.729972672105203       0.648605046323253
   H              0.229972672105203       0.672265506705736       0.398605046323253
   H              0.770027327894797       0.327734493294265       0.898605046323253
   H              0.327734493294265       0.770027327894797       0.101394953676747
   H              0.672265506705736       0.229972672105203       0.601394953676747
   H              0.270027327894797       0.172265506705735       0.851394953676747
   H              0.729972672105203       0.827734493294264       0.351394953676747
   O              0.041719781122772       0.245812689847142       0.345977651324123
   O              0.958280218877228       0.754187310152858       0.845977651324123
   O              0.254187310152858       0.541719781122772       0.595977651324123
   O              0.745812689847142       0.458280218877228       0.095977651324123
   O              0.458280218877228       0.745812689847142       0.904022348675877
   O              0.541719781122772       0.254187310152858       0.404022348675877
   O              0.245812689847142       0.041719781122772       0.654022348675877
   O              0.754187310152858       0.958280218877228       0.154022348675877
   O              0.287155571719786       0.287155571719786      -0.000000000000000
   O              0.712844428280214       0.712844428280214       0.500000000000000
   O              0.212844428280214       0.787155571719786       0.250000000000000
   O              0.787155571719786       0.212844428280214       0.750000000000000
%ENDBLOCK positions_frac

FIX_COM : true

%BLOCK species_gamma
   radsectesla
   H          267522128.0    
%ENDBLOCK species_gamma

%BLOCK species_pot
   H       1|0.6|13|15|17|10(qc=8)[]
   O       2|1.1|15|18|20|20:21(qc=7)[]
%ENDBLOCK species_pot

SYMMETRY_TOL :     0.001000

%BLOCK symmetry_ops
# Symm. op. 1       E
          1.000000000000000       0.000000000000000       0.000000000000000
          0.000000000000000       1.000000000000000       0.000000000000000
          0.000000000000000       0.000000000000000       1.000000000000000
          0.000000000000000       0.000000000000000       0.000000000000000
# Symm. op. 2     4_1
          0.000000000000000       1.000000000000000       0.000000000000000
         -1.000000000000000       0.000000000000000       0.000000000000000
          0.000000000000000       0.000000000000000       1.000000000000000
          0.500000000000000       0.500000000000000       0.250000000000000
# Symm. op. 3     2_1
         -1.000000000000000       0.000000000000000       0.000000000000000
          0.000000000000000      -1.000000000000000       0.000000000000000
          0.000000000000000       0.000000000000000       1.000000000000000
          0.000000000000000       0.000000000000000       0.500000000000000
# Symm. op. 4     4_2
          0.000000000000000      -1.000000000000000       0.000000000000000
          1.000000000000000       0.000000000000000       0.000000000000000
          0.000000000000000       0.000000000000000       1.000000000000000
          0.500000000000000       0.500000000000000       0.750000000000000
# Symm. op. 5     2_1
          1.000000000000000       0.000000000000000       0.000000000000000
          0.000000000000000      -1.000000000000000       0.000000000000000
          0.000000000000000       0.000000000000000      -1.000000000000000
          0.500000000000000       0.500000000000000       0.750000000000000
# Symm. op. 6       2
          0.000000000000000      -1.000000000000000       0.000000000000000
         -1.000000000000000       0.000000000000000       0.000000000000000
          0.000000000000000       0.000000000000000      -1.000000000000000
          0.000000000000000       0.000000000000000       0.500000000000000
# Symm. op. 7     2_1
         -1.000000000000000       0.000000000000000       0.000000000000000
          0.000000000000000       1.000000000000000       0.000000000000000
          0.000000000000000       0.000000000000000      -1.000000000000000
          0.500000000000000       0.500000000000000       0.250000000000000
# Symm. op. 8       2
          0.000000000000000       1.000000000000000       0.000000000000000
          1.000000000000000       0.000000000000000       0.000000000000000
          0.000000000000000       0.000000000000000      -1.000000000000000
          0.000000000000000       0.000000000000000       0.000000000000000
%ENDBLOCK symmetry_ops

kpoint_mp_grid :    4   4   4

%BLOCK external_pressure
   GPA
       100.00000000      0.00000000      0.00000000
       100.00000000      0.00000000
       100.00000000
%ENDBLOCK external_pressure

