%BLOCK lattice_cart
12.5076   0   0
0   12.5076   0
0   0   12.5076
%ENDBLOCK lattice_cart

%BLOCK positions_frac
H   0.7774452238988924   0.39812605671513435   0.4834765506948376   
H   0.7800199231012611   0.27501515115181135   0.5367596527839489   
H   0.8975459235982104   0.33585130080278996   0.5588642951849817   
H   0.8639557595852693   0.3014661801799741   0.42489105434988467   
C   0.8333333333333334   0.3333333333333333   0.5   
H   0.4489157118524123   -0.05194328317002895   0.4521785299860062   
H   0.4416040879472035   0.033634597435802376   0.5552560717675485   
H   0.5389497261080379   0.07257536529601782   0.4715335751351649   
H   0.5574085626637842   -0.04838692973444995   0.5442443682300769   
C   0.5   0.0   0.5   
H   0.032701040309643735   0.5403272039750131   0.430007423689711   
H   0.018605658513264744   0.5580804883764259   0.5622502088154774   
H   0.03187082584271641   0.4272141036992796   0.5357919811708001   
H   -0.08646383702360609   0.4929063815731014   0.4917363675604646   
C   0.0   0.5   0.5   
H   0.16265147686675324   0.7974786520222154   0.7459946077421523   
H   0.21684193503295038   0.902726517597385   0.6828416652259767   
H   0.10009659750326133   0.8709463209883497   0.6248540943041593   
H   0.20831619432469842   0.7793323347029537   0.6124097671136008   
C   0.16666666666666666   0.8333333333333334   0.6666666666666666   
H   -0.019506515690440034   0.7486303792283131   0.49371449541974943   
H   0.071682726254549   0.8370962984718018   0.45058311010991325   
H   0.02799022095867462   0.8734609708124528   0.5721174209006107   
H   -0.06327020405777153   0.8805704277100642   0.46311991933768765   
C   0.0   0.8333333333333334   0.5   
H   0.33998028781720896   0.5561673534659362   0.7670336458751803   
H   0.3587445120875899   0.5503627152527147   0.8997597667993873   
H   0.38407501488454976   0.43022754417025877   0.845649514444727   
H   0.249833973599658   0.4775199752258473   0.8441549582827876   
C   0.3333333333333333   0.5   0.8333333333333334   
H   0.07521581283197902   0.8675572010646955   0.8056582446458905   
H   -0.047126971824751396   0.8365932972935514   0.760100667685181   
H   -0.054919150542792096   0.8709834542122779   0.8895557261833881   
H   0.01253942158258054   0.7501743590876451   0.856179559829325   
C   0.0   0.8333333333333334   0.8333333333333334   
H   0.8253232490411144   0.3273589788278919   0.08009445522326093   
H   0.7691919143646115   0.28029778778994885   0.19250677962929488   
H   0.8157843992343954   0.40423525197920845   0.21420144341644987   
H   0.9101252318364454   0.3001818731745017   0.19113270782481087   
C   0.8333333333333334   0.3333333333333333   0.16666666666666666   
H   0.6501526632011846   0.8738647404029332   0.575359769684012   
H   0.6781250320445206   0.7515498616055244   0.5278347224046004   
H   0.738306905833061   0.8440795915006343   0.451556257123232   
H   0.5961688893758536   0.8370640719326058   0.44890452913529705   
C   0.6666666666666666   0.8333333333333334   0.5   
H   0.28035206591030953   0.2659846278113085   0.31746703814244154   
H   0.27816175682789723   0.4000181774155536   0.32314358986444863   
H   0.3991528559208339   0.35889356767449   0.28225430609998087   
H   0.36027989708156916   0.3302661301462574   0.41615287887119745   
C   0.3333333333333333   0.3333333333333333   0.3333333333333333   
H   0.3480545135017617   0.8787065927862439   0.9062658798224998   
H   0.2545499909453467   0.8633538316622656   0.811275300814844   
H   0.3195647145786526   0.7473762192107282   0.8292834165899207   
H   0.39133013147072465   0.8564018363626055   0.772515427005295   
C   0.3333333333333333   0.8333333333333334   0.8333333333333334   
H   0.11588951926650953   0.191292149112382   -0.06640684507296954   
H   0.18121405221383682   0.08331177250509082   -0.02085515162690907   
H   0.1409062901056314   0.15831877049486578   0.08283307180870085   
H   0.24171204509385188   0.2108808274375616   -0.002810928738497198   
C   0.16666666666666666   0.16666666666666666   0.0   
H   0.8458619917834961   0.7985390038474078   0.7455779428532227   
H   0.8897653797866819   0.7867453650997076   0.6193423863733892   
H   0.8554616134661914   0.9142630848724064   0.6431015082646414   
H   0.7521043990041422   0.8164515818869748   0.6399932931984641   
C   0.8333333333333334   0.8333333333333334   0.6666666666666666   
H   0.9017162780714174   0.8774731940427238   0.30218774421014205   
H   0.8594525437505303   0.7513310202030413   0.31962167242771694   
H   0.7539881642740051   0.8312273858514772   0.2973540158234475   
H   0.8260615160015576   0.8476089271032815   0.41899505320595554   
C   0.8333333333333334   0.8333333333333334   0.3333333333333333   
H   0.462154660912736   0.07784845871806008   0.15656964032623366   
H   0.5080175484188358   -0.024948214261282953   0.08355284303394216   
H   0.4620356439296166   -0.07048914363975484   0.2010845465174368   
H   0.5791236620192621   0.010439968141018795   0.20166745708921263   
C   0.5   0.0   0.16666666666666666   
H   0.6308905230874655   -0.07412467614916063   0.6953058372675995   
H   0.5962923021286588   0.05120429148435558   0.6621753967144558   
H   0.7006560038830199   0.012292396041176623   0.5873683431567287   
H   0.721435294921759   0.031048392769924008   0.7269244198755852   
C   0.6666666666666666   0.0   0.6666666666666666   
H   0.19889010225006232   0.07236513388262492   0.13034119690123325   
H   0.19389350626920676   0.009710293479642348   0.2488798746208857   
H   0.19380652119915212   -0.08115079069579631   0.15015668115094072   
H   0.07958849776657513   0.0025862044500606293   0.16436314677821126   
C   0.16666666666666666   0.0   0.16666666666666666   
H   0.04325895490041126   0.35340108966084666   0.7396087679061472   
H   0.0018895557798256982   0.2462790999858997   0.6702152144784331   
H   0.028857482968343236   0.34680859026978955   0.5855478323336022   
H   -0.0824038047997561   0.3609318476826406   0.673188715160941   
C   0.0   0.3333333333333333   0.6666666666666666   
H   0.630046336249984   0.3772094460760819   0.39912421634219336   
H   0.6568913534982705   0.39056703229316664   0.268346033711316   
H   0.6342457006296438   0.261340606890371   0.2964479641897028   
H   0.7515292897457256   0.32199840424179904   0.34959545936157305   
C   0.6666666666666666   0.3333333333333333   0.3333333333333333   
H   0.2818043530591403   0.5522998666556216   0.5469477400524554   
H   0.38866158254530253   0.47246612798327714   0.5614432493218894   
H   0.3892462932268198   0.5261975019878443   0.438501756432617   
H   0.2869286460364923   0.432490112652267   0.47027421551067683   
C   0.3333333333333333   0.5   0.5   
H   0.03586624071166103   0.5699988014290284   0.20419509232029007   
H   0.06974778031947845   0.4649384840162863   0.12792987028704256   
H   -0.056272598619037245   0.5016650360960271   0.10014430609680602   
H   -0.029375816092864448   0.44580793287107606   0.22826929198003543   
C   0.0   0.5   0.16666666666666666   
H   0.7146659317557743   -0.07221194068941153   0.008724008774719834   
H   0.682234086398954   0.019743071707707532   -0.08344140889720164   
H   0.6833381683540178   0.07658995421411982   0.03808729579918443   
H   0.5823696338320629   -0.019718579255928965   0.009989496670817222   
C   0.6666666666666666   0.0   0.0   
H   0.15015343845813364   0.7166753691677493   0.09723292037123758   
H   0.14927364967399406   0.5876940434098868   0.13417959397363663   
H   0.11942750206596064   0.6647636721871664   0.23987487724557158   
H   0.25130107253453876   0.6718521420661515   0.18678457770634804   
C   0.16666666666666666   0.6666666666666666   0.16666666666666666   
H   0.20130144162699776   0.6889152265009236   0.5768116925023502   
H   0.19474058072694053   0.5844768758253149   0.4928378922712576   
H   0.19070391840369377   0.6987323469546789   0.42261392352028265   
H   0.07972970994296939   0.6672919467590807   0.5060147100308252   
C   0.16666666666666666   0.6666666666666666   0.5   
H   0.11477142250001082   0.06309991461319574   0.46967036820174907   
H   0.2334102524728593   0.005815103481113771   0.4442677787849593   
H   0.14981571996146328   -0.08541526489633666   0.4961425041602189   
H   0.19382908459534007   0.020700477114099683   0.5801766515629307   
C   0.16666666666666666   0.0   0.5   
H   0.7389959780290943   0.6323030882253888   -0.034383387716657964   
H   0.6997537693754495   0.7358975226823818   0.04131506221702523   
H   0.6192177200909458   0.6309639022246546   0.06378489034543743   
H   0.6139193683061744   0.6934468318980331   -0.0639933388891127   
C   0.6666666666666666   0.6666666666666666   0.0   
H   0.01658023751337717   0.24091532997183995   0.457493131405361   
H   -0.085676993243727   0.17472878792004043   0.513749806759993   
H   0.02749744861293814   0.14731839028267643   0.5803998549567998   
H   0.014735457647897727   0.09896879754643928   0.4471372819388326   
C   0.0   0.16666666666666666   0.5   
H   0.678481432417119   0.488097509203824   0.9188514260356135   
H   0.6485502887601121   0.41858965381623325   0.8080597395621053   
H   0.7290156347050575   0.521128453745929   0.776229946540773   
H   0.5969628611320793   0.5506752778328678   0.8203719342234775   
C   0.6666666666666666   0.5   0.8333333333333334   
H   0.6103439448156165   0.7770682401567217   0.7978848855613455   
H   0.7005857613666273   0.7843210845191187   0.8969092457313125   
H   0.6450714114612138   0.9049932113638627   0.8779775825664421   
H   0.7287386773393152   0.8527910449584729   0.7753413933270323   
C   0.6666666666666666   0.8333333333333334   0.8333333333333334   
H   0.45111009548186226   0.7966417216065157   0.271219687317158   
H   0.5280263036944342   0.7625424497852663   0.3757335605029872   
H   0.4698108541052995   0.8810198468609762   0.39973524636340585   
H   0.5677939264091509   0.8740603140833751   0.29672870606650764   
C   0.5   0.8333333333333334   0.3333333333333333   
H   0.5505985292335164   0.8920077042004935   0.01167046000601938   
H   0.5244201995533219   0.8067288538337485   -0.06953379119777865   
O   0.5   0.8333333333333334   0.0   
H   0.8717881898060874   0.1964520274749418   0.2719073706694489   
H   0.8742113314073605   0.10095206441425941   0.3455674217044343   
O   0.8333333333333334   0.16666666666666666   0.3333333333333333   
H   0.4039713952918612   0.31080669594911675   0.64133077503232   
H   0.34448880585711567   0.4105405624687172   0.6739941352617298   
O   0.3333333333333333   0.3333333333333333   0.6666666666666666   
H   0.28940747317163495   0.059748865995015145   0.6413746834433446   
H   0.3352759851011421   -0.04479789196540163   0.6024135144204974   
O   0.3333333333333333   0.0   0.6666666666666666   
H   0.6488018504111899   0.5934571518392832   0.68812145337969   
H   0.7267118416018239   0.6533198672425701   0.6181328381947289   
O   0.6666666666666666   0.6666666666666666   0.6666666666666666   
H   0.4338737959459193   0.7083395927357047   0.16120910638328553   
H   0.49076432399861564   0.6339775898980894   0.23727275098536882   
O   0.5   0.6666666666666666   0.16666666666666666   
H   0.1426233960932442   0.4841317639743999   0.4061976786578692   
H   0.18299719350343624   0.42788472298907093   0.30741435748792845   
O   0.16666666666666666   0.5   0.3333333333333333   
H   0.8766086129232061   0.6825882401510327   0.1033196362058437   
H   0.8452867995914128   0.5895239419441248   0.1733903011602466   
O   0.8333333333333334   0.6666666666666666   0.16666666666666666   
H   0.5102256767736767   0.54554004269817   0.6037331093258227   
H   0.4811481927449112   0.5536952786199536   0.7205231334199426   
O   0.5   0.5   0.6666666666666666   
H   -0.009180886858432246   -0.062136562380212354   0.0468385687875581   
H   0.07045616126340108   0.025311212661091632   0.02311632426781523   
O   0.0   0.0   0.0   
H   -0.017445188363665834   0.7351853287798522   0.299570173836931   
H   -0.06698159478434261   0.6516318578174588   0.3711025413872239   
O   0.0   0.6666666666666666   0.3333333333333333   
H   0.5059889729637022   0.4261287164469351   -0.025421610158817498   
H   0.4654203591884407   0.4887049394235336   0.06939569613399423   
O   0.5   0.5   0.0   
H   0.4380821642409693   0.2117859471080299   0.6502494579704394   
H   0.5295048245161109   0.15584399777841   0.5948932191919017   
O   0.5   0.16666666666666666   0.6666666666666666   
H   0.7661375576676966   0.7011579175977004   0.520836840833247   
H   0.8089781662285183   0.6224641387304853   0.4400662452923913   
O   0.8333333333333334   0.6666666666666666   0.5   
H   0.6917630292069734   0.2731743494617771   0.04347599154466166   
H   0.6942441913849685   0.3128449170757753   -0.07041872992089994   
O   0.6666666666666666   0.3333333333333333   0.0   
H   -0.05713034671059274   -0.053512788663015225   0.6632611522798079   
H   0.056417007389271974   -0.03641678858478567   0.6262930195634631   
O   0.0   0.0   0.6666666666666666   
H   0.5037987333040631   0.5918340348415915   0.47709280825981687   
H   0.5035349507776679   0.7032244834780925   0.4307892873394165   
O   0.5   0.6666666666666666   0.5   
H   0.8611730258899071   0.10947097278820406   0.7124126688321109   
H   0.8935805161807476   0.17659809484083439   0.6175674173101261   
O   0.8333333333333334   0.16666666666666666   0.6666666666666666   
H   0.21628920094194107   0.27904200241050503   0.13966392471827682   
H   0.18400369484254422   0.3935281269466457   0.11960174480458628   
O   0.16666666666666666   0.3333333333333333   0.16666666666666666   
H   0.8086934235947157   0.2597514506467948   0.822485569398705   
H   0.8045044005733865   0.34791400837205183   0.9047153278791705   
O   0.8333333333333334   0.3333333333333333   0.8333333333333334   
H   0.15999918665593849   0.2558371907459677   0.5094331960856017   
H   0.19760834497530416   0.3365879191791729   0.4280895500749647   
O   0.16666666666666666   0.3333333333333333   0.5   
H   0.1957412222332021   0.42725523131910514   0.001400514968044174   
H   0.18678197677234576   0.5222743983970751   -0.07237622585770075   
O   0.16666666666666666   0.5   0.0   
H   0.05929322001565938   0.5483097667950794   0.8503501804673891   
H   0.037647051317133   0.4313549347175256   0.8302273498346395   
O   0.0   0.5   0.8333333333333334   
H   0.8832342502352625   -0.037537548531250485   0.7860055028673704   
H   0.7699398990755931   0.003865658514474539   0.7874484581426651   
O   0.8333333333333334   0.0   0.8333333333333334   
H   0.20851209111355443   0.5230185652053931   0.7287810667905432   
H   0.11934405968617322   0.44709815975645856   0.6998488721602855   
O   0.16666666666666666   0.5   0.6666666666666666   
H   0.906987825776915   0.013415692941437359   0.14355546765442137   
H   0.7934330698822823   0.03394465668033491   0.1084015668778987   
O   0.8333333333333334   0.0   0.16666666666666666   
H   0.019436553937622444   0.3091350058612358   0.4052760460469028   
H   0.047361277527183186   0.3952662450543461   0.3255669679830209   
O   0.0   0.3333333333333333   0.3333333333333333   
H   0.6568184269656898   -0.07246267118474375   0.36146278504444884   
H   0.7013204553767365   -0.015617694820265914   0.2648184069994093   
O   0.6666666666666666   0.0   0.3333333333333333   
H   0.9018665821775397   0.17481376910849983   0.037093275922524455   
H   0.8161374972613586   0.09224701760267058   0.01746744540514166   
O   0.8333333333333334   0.16666666666666666   0.0   
H   0.026055890233997483   0.778506604430536   0.2162066805537984   
H   0.026244029015610713   0.8049576790398989   0.0985112136313339   
O   0.0   0.8333333333333334   0.16666666666666666   
H   0.03364591486980011   0.23298368725682803   0.1419867601307325   
H   0.03361858653801945   0.15863563674755254   0.2369829933030045   
O   0.0   0.16666666666666666   0.16666666666666666   
H   -0.04568786398898481   0.6166097903780663   0.7059861378527844   
H   0.023713255411756957   0.7134538249957239   0.7248709270543109   
O   0.0   0.6666666666666666   0.6666666666666666   
H   0.3163149989860309   0.13249775407876127   0.7649085256784508   
H   0.3869897032094577   0.21898868064154334   0.8104752183775128   
O   0.3333333333333333   0.16666666666666666   0.8333333333333334   
H   0.679779231787101   0.8514623482032013   0.24175655979360247   
H   0.7176426395286201   0.8810411661434745   0.13110678093370673   
O   0.6666666666666666   0.8333333333333334   0.16666666666666666   
H   0.11894596392794754   0.18160743988153275   0.39365414582677466   
H   0.14972420774911632   0.22689322730616293   0.28616547273558773   
O   0.16666666666666666   0.16666666666666666   0.3333333333333333   
H   0.32674307628107113   0.206336624423477   0.4327545127345919   
H   0.40404683601162694   0.13419481087517865   0.4908200373406026   
O   0.3333333333333333   0.16666666666666666   0.5   
H   0.6933160892559146   0.6839247525344476   0.40496474642733943   
H   0.691994706934307   0.5929035469238265   0.32581102411286245   
O   0.6666666666666666   0.6666666666666666   0.3333333333333333   
H   0.44020992551226007   0.5502109957890696   0.33989804875935997   
H   0.47667571188509794   0.45764490477086167   0.27168014131485124   
O   0.5   0.5   0.3333333333333333   
H   0.21092916757169822   0.21324563899012294   0.7115032917061023   
H   0.15295682360227852   0.107563836373116   0.7162447691761996   
O   0.16666666666666666   0.16666666666666666   0.6666666666666666   
H   0.14345021289715484   0.07426848958797479   0.8425137648424272   
H   0.13572513659360136   -0.016313341032640025   0.7632220702218008   
O   0.16666666666666666   0.0   0.8333333333333334   
H   0.3000543662652479   0.15796780804507402   0.0962682802961894   
H   0.2902676886078445   0.1170079283926046   0.20930998444812385   
O   0.3333333333333333   0.16666666666666666   0.16666666666666666   
H   0.4690493298556819   0.09536152716901783   0.3431682554399195   
H   0.4852359888573238   0.19867062138169728   0.40331092582965583   
O   0.5   0.16666666666666666   0.3333333333333333   
H   0.17477017315930246   0.2557185353550958   0.8403596347306084   
H   0.23309404400437717   0.35794688921659823   0.8668097280140482   
O   0.16666666666666666   0.3333333333333333   0.8333333333333334   
H   0.7796178177250502   0.4556651751092998   0.03589093588709279   
H   0.8800995910107005   0.44473094468635377   -0.029955654918485498   
O   0.8333333333333334   0.5   0.0   
H   0.39009368406800055   0.8863702254094299   0.17688641506817887   
H   0.35940020102214587   0.7963241595699597   0.10271409001606933   
O   0.3333333333333333   0.8333333333333334   0.16666666666666666   
H   0.8067519422002244   0.5637855722216236   0.6297353382882712   
H   0.7718842356830904   0.45202576159621866   0.6588197920307226   
O   0.8333333333333334   0.5   0.6666666666666666   
H   0.27586477649610697   0.711574081673999   -0.028631829253644686   
H   0.2977076822401845   0.6356017110824388   0.062488991932526335   
O   0.3333333333333333   0.6666666666666666   0.0   
H   0.2640420748288826   -0.029398725040175752   0.3115726105768234   
H   0.32419735519325543   0.07515178094833683   0.3131383756032121   
O   0.3333333333333333   0.0   0.3333333333333333   
H   0.3237560018575633   0.6647361602215179   0.5889258121519867   
H   0.3421321821879446   0.7436501700440462   0.6782947817582399   
O   0.3333333333333333   0.6666666666666666   0.6666666666666666   
H   0.879918375478056   0.893666079806922   -0.018135218370129002   
H   0.8483879304641402   0.8258695841228998   0.07652936787245156   
O   0.8333333333333334   0.8333333333333334   0.0   
H   0.6324954550766655   0.5339357002550196   0.5618044427260452   
H   0.6580305188413212   0.5561246217957698   0.4460135538026002   
O   0.6666666666666666   0.5   0.5   
H   0.5603794570125568   0.1738582017825056   -0.04941351624354037   
H   0.49367645994328935   0.0886687761211247   0.003928677334803723   
O   0.5   0.16666666666666666   0.0   
H   0.02950352825028116   -0.045120564085240684   0.27647588781017673   
H   0.015518078417796705   0.07130202798704906   0.3047973448073097   
O   0.0   0.0   0.3333333333333333   
H   0.8062660330892955   -0.06810524596476979   0.527715146104278   
H   0.8065303706738435   0.049517850028274975   0.5544855606124726   
O   0.8333333333333334   0.0   0.5   
H   0.5150484473852964   0.815555152301512   0.591856419343884   
H   0.5481620834992034   0.8942528615854726   0.677074230481352   
O   0.5   0.8333333333333334   0.6666666666666666   
H   0.7269581829890657   0.17712141079472013   0.8822692503960287   
H   0.7018712722889203   0.17812578028564813   0.7642796074957434   
O   0.6666666666666666   0.16666666666666666   0.8333333333333334   
H   0.16586649622027647   0.8706153347294783   0.2644239385227653   
H   0.1522218266701834   0.7598648404223665   0.3102504448470243   
O   0.16666666666666666   0.8333333333333334   0.3333333333333333   
H   0.4830285264614315   0.30397946803640546   0.42936422809890407   
H   0.47339843349322985   0.27600306809472225   0.5463107972406064   
O   0.5   0.3333333333333333   0.5   
H   0.24057665629523534   0.8099668119126646   0.011419794385472441   
H   0.1769252679389087   0.8869808166852761   -0.056176518439151696   
O   0.16666666666666666   0.8333333333333334   0.0   
H   0.7148187443874358   0.21261258033392752   0.12532125552518955   
H   0.6159811219363951   0.2197401296258015   0.19411253482428092   
O   0.6666666666666666   0.16666666666666666   0.16666666666666666   
H   0.5408139568490867   0.6834704125344028   0.8980708622106205   
H   0.4787705914544905   0.7385482473366989   0.8104982032222595   
O   0.5   0.6666666666666666   0.8333333333333334   
H   0.7140610763667705   0.5229508176966053   0.10864837222224119   
H   0.5967217711945518   0.5079122707744375   0.1322544571678407   
O   0.6666666666666666   0.5   0.16666666666666666   
H   0.37863407036008057   0.5494378248080449   0.12613473731354174   
H   0.3853538215209223   0.4711437160792913   0.21765957088888693   
O   0.3333333333333333   0.5   0.16666666666666666   
H   -0.023307692342482287   0.28664726374050276   -0.05844873803296131   
H   -0.06852749414610852   0.3480530304022771   0.03502007507498744   
O   0.0   0.3333333333333333   0.0   
H   0.2349747507713862   0.6754784349315979   0.7959775977631176   
H   0.18153710309772092   0.6025437063669883   0.8758328471747882   
O   0.16666666666666666   0.6666666666666666   0.8333333333333334   
H   0.30313535957122284   -0.017802214087424183   0.07007321990784045   
H   0.3932007518013228   0.045872442162719136   0.021229786857403635   
O   0.3333333333333333   0.0   0.0   
H   0.5359492644902557   0.35752461633883204   0.7680529779179276   
H   0.5076978168024074   0.3968696614878565   0.8785325724322549   
O   0.5   0.3333333333333333   0.8333333333333334   
H   0.6306693976423801   0.3985107164343915   0.6910633457213083   
H   0.6056092999740698   0.2846973138373954   0.659911803665786   
O   0.6666666666666666   0.3333333333333333   0.6666666666666666   
H   0.45940400896900013   0.3375336962569515   0.23355026000258908   
H   0.4521010292041697   0.2889325780724399   0.12338440560088353   
O   0.5   0.3333333333333333   0.16666666666666666   
H   0.07455244856884662   0.6906451864873616   -0.002460811573888753   
H   -0.024959693287491785   0.6896085471923964   -0.07063834952022627   
O   0.0   0.6666666666666666   0.0   
%ENDBLOCK positions_frac

