%BLOCK lattice_cart
11.92665617786854   0   0
0   11.92665617786854   0
0   0   11.92665617786854
%ENDBLOCK lattice_cart

%BLOCK positions_frac
H   0.752593072278343   0.636031570818862   0.6611325316085347   
H   0.6316413938563604   0.6079588415323764   0.7273222885194955   
H   0.6042431872130557   0.6614961355832886   0.6001155002530826   
H   0.6665323849524831   0.7508918121385404   0.7021432754173784   
C   0.6666666666666667   0.6666666666666667   0.6666666666666667   
H   0.13370977161672135   0.46712469702767623   0.7453148735943073   
H   0.13854410191989466   0.5868226298795686   0.6715076606397269   
H   0.13706510316787454   0.4772478910314431   0.5832486116324115   
H   0.2580045819722386   0.49737602308252754   0.6683937748152471   
C   0.16666666666666669   0.5   0.6666666666666667   
H   0.7013434919716244   -0.08376387694685639   0.6551075302201369   
H   0.7419651172625449   0.05093459011726926   0.6572701887502336   
H   0.6334656759785342   0.03318122093801907   0.7450833978161927   
H   0.6085555078890561   0.01861720963112901   0.5986300907617751   
C   0.6666666666666667   0.0   0.6666666666666667   
H   -0.014359994292737824   0.1804335434609851   0.9225339308483207   
H   0.08153165158846133   0.20663249734379593   0.8229504099813613   
H   -0.046902831014564814   0.20602058812874183   0.7654814635126413   
H   0.007671447016187468   0.0770479977613436   0.8171430271563627   
C   0.0   0.16666666666666669   0.8333333333333334   
H   0.8180918929884242   0.08974997879905444   0.7136134935400246   
H   0.919288180516426   0.15278877935819488   0.638888052241669   
H   0.8405489366885096   0.25025071968830204   0.7029175160151353   
H   0.7779031419873991   0.1695839006439868   0.5940618006929399   
C   0.8333333333333334   0.16666666666666669   0.6666666666666667   
H   -0.029007433144887653   0.7027796166694641   0.7454505901170032   
H   -0.02165312014059794   0.57878654997645   0.6793438275664456   
H   0.08736172821748074   0.659030124750606   0.6409354677010641   
H   -0.04929810728518375   0.7005741980269763   0.5975836813161748   
C   0.0   0.6666666666666667   0.6666666666666667   
H   0.23864413755056638   0.6383449959837122   0.21534530248025324   
H   0.1334642083863803   0.7315894240163617   0.2217585469399575   
H   0.09110684460568791   0.6178271178733032   0.1506075666432517   
H   0.19558266908127042   0.7046443427393565   0.08873051424518373   
C   0.16666666666666669   0.6666666666666667   0.16666666666666669   
H   0.36405689508934613   0.7527339871570179   0.6676474961237031   
H   0.35524935086051834   0.6399078145720293   0.7512606081761719   
H   0.36893239418505613   0.5983170717848469   0.6175390504436644   
H   0.24242149972036367   0.6668315812737777   0.6573128309781257   
C   0.33333333333333337   0.6666666666666667   0.6666666666666667   
H   0.6951638413272958   0.5855052253916743   0.18180768370214742   
H   0.6893895663059115   0.46032471478149345   0.2457996212722108   
H   0.7039425282890245   0.4415513904172624   0.10711204377353024   
H   0.5757670746620714   0.4993611771920199   0.1572147351917633   
C   0.6666666666666667   0.5   0.16666666666666669   
H   0.18647377415499752   0.13607031396229038   0.7504761209300329   
H   0.08472885361376103   0.20439116170291152   0.6813479539452254   
H   0.14838193723130516   0.11418652851087406   0.5941133297453872   
H   0.22638857078244695   0.2316786786075144   0.6430189310038857   
C   0.16666666666666669   0.16666666666666669   0.6666666666666667   
H   0.18970722544207438   -0.04399299820586638   0.8987968641909421   
H   0.11793527532721504   0.055796648657771356   0.8688820408886285   
O   0.16666666666666669   0.0   0.8333333333333334   
H   0.3649578525347531   0.0689559416938898   0.635096221586539   
H   0.29743020621920124   -0.03213831610063178   0.6001097796164763   
O   0.33333333333333337   0.0   0.6666666666666667   
H   0.4353675963196176   -0.016905550163664504   0.11882756257462318   
H   0.519764635153296   -0.07537547546013368   0.19273622762548115   
O   0.5   0.0   0.16666666666666669   
H   -0.043144308958269505   0.43050213209801275   0.15889877932448773   
H   0.07129764138539997   0.47056399146813377   0.19498437926426648   
O   0.0   0.5   0.16666666666666669   
H   0.5438538768052817   0.26986570125262455   0.5282917351780414   
H   0.5006917078170856   0.3175652814517384   0.4193612054137429   
O   0.5   0.33333333333333337   0.5   
H   0.16042885548431723   0.6453888989871746   0.5791206131573838   
H   0.1861033858563601   0.5943050643503852   0.4662696343107463   
O   0.16666666666666669   0.6666666666666667   0.5   
H   -0.02751938872573188   0.5932087531204667   0.024461056677309266   
H   -0.0470651823888661   0.716432845606531   0.045386354255410766   
O   0.0   0.6666666666666667   0.0   
H   -0.05604826392399415   0.8919569870701936   0.48682485499827505   
H   -0.018249124053202632   0.7809369761904982   0.4393921099062115   
O   0.0   0.8333333333333334   0.5   
H   0.2937078372530066   0.0024928537250552348   0.2613935609340343   
H   0.28229708648117874   -0.047154424464869976   0.3771909081956336   
O   0.33333333333333337   0.0   0.33333333333333337   
H   0.3384992181585765   0.38325708416095017   0.6016077868004731   
H   0.4118954635052189   0.310638461348998   0.6747077860315189   
O   0.33333333333333337   0.33333333333333337   0.6666666666666667   
H   0.4582785612297259   0.7279241768755812   0.46452375298721016   
H   0.4719127377085343   0.6023646424627724   0.45724394203833035   
O   0.5   0.6666666666666667   0.5   
H   0.061774553925522224   0.18036020771011305   0.4475775188190825   
H   0.04150678326377489   0.1571258994823498   0.5702700919082802   
O   0.0   0.16666666666666669   0.5   
H   0.12536312206764405   -0.027016382211301433   0.5656951855765617   
H   0.13857256184537065   0.07705433563778158   0.4949924311408031   
O   0.16666666666666669   0.0   0.5   
H   0.23438887631018973   0.3621373131956503   0.13011864103928952   
H   0.17886504906184622   0.3590505166580276   0.24374812397615522   
O   0.16666666666666669   0.33333333333333337   0.16666666666666669   
H   0.40909655872706485   0.8061287862719204   0.18314609048218503   
H   0.34424355250293737   0.9144005938024925   0.17446355770516303   
O   0.33333333333333337   0.8333333333333334   0.16666666666666669   
H   0.5300222441298623   0.8854290350384603   0.389337153144368   
H   0.4735087464230582   0.7724976826429685   0.381799426647851   
O   0.5   0.8333333333333334   0.33333333333333337   
H   0.20862026049801907   0.7963917314883867   0.06022407433853014   
H   0.09868358714696321   0.8557452470754151   0.0403451624560445   
O   0.16666666666666669   0.8333333333333334   0.0   
H   0.6350926878099233   0.8077588122396968   0.9047528883736339   
H   0.6290106662238262   0.9059079054377539   0.8251674147274127   
O   0.6666666666666667   0.8333333333333334   0.8333333333333334   
H   0.6594023855244482   0.24781651350801678   0.4893389639677144   
H   0.591818807956852   0.14830333771889986   0.5285010755706024   
O   0.6666666666666667   0.16666666666666669   0.5   
H   -0.011253687664284528   0.25271243896702444   -0.011196026871200977   
H   0.059499923969170414   0.33266710838127556   0.056666041895880266   
O   0.0   0.33333333333333337   0.0   
H   0.5053395604338965   0.5260029621562458   0.25557048767010493   
H   0.44619188235538115   0.5541071640137878   0.36380998653045105   
O   0.5   0.5   0.33333333333333337   
H   0.07527371669136788   -0.020423408306595125   0.025854923724104247   
H   -0.023793957506652412   -0.07053069728230575   -0.0347993310167427   
O   0.0   0.0   0.0   
H   0.27468791870232834   0.8029237491727015   0.5488640731632598   
H   0.34570883454283396   0.9066803344620643   0.5349111659416448   
O   0.33333333333333337   0.8333333333333334   0.5   
H   0.6728426913074576   0.07198025848046605   0.03914619037519618   
H   0.744536852974273   -0.011136824961021806   -0.023747217234356098   
O   0.6666666666666667   0.0   0.0   
H   0.8427879220405683   0.2467688045897144   0.3490171901518437   
H   0.9029609241586579   0.13664095005536464   0.3649905607862929   
O   0.8333333333333334   0.16666666666666669   0.33333333333333337   
H   0.7028315528812505   0.09668086795477915   0.8566959979055696   
H   0.7220746361852702   0.19530705019232084   0.7798411801003742   
O   0.6666666666666667   0.16666666666666669   0.8333333333333334   
H   0.15163078715959083   0.7941367468671581   0.26269853278135474   
H   0.1615248695561807   0.7710553761085268   0.3866882120095071   
O   0.16666666666666669   0.8333333333333334   0.33333333333333337   
H   -0.011389243131598245   0.7476656150644535   0.34115513693042543   
H   0.032461952316249265   0.6487147524249736   0.40665233181971416   
O   0.0   0.6666666666666667   0.33333333333333337   
H   0.8066498078161606   0.7350617762289986   0.20356956040280147   
H   0.8699232995599357   0.628668808430411   0.22966716073745133   
O   0.8333333333333334   0.6666666666666667   0.16666666666666669   
H   0.4645320754239137   0.37518566422697364   0.8945063162359495   
H   0.48653034837111203   0.3842403899792017   0.7702558795101153   
O   0.5   0.33333333333333337   0.8333333333333334   
H   0.4699337428758751   0.16377199774688517   -0.07641574567168942   
H   0.5132291898148245   0.0868193341274388   0.01418157732351267   
O   0.5   0.16666666666666669   0.0   
H   0.576636741197282   0.14715467195091195   0.31102151868183886   
H   0.4920905256813557   0.2403259938228433   0.29778802631438206   
O   0.5   0.16666666666666669   0.33333333333333337   
H   0.31178162736452625   0.6055764334775214   0.2827840258118707   
H   0.34207479309136085   0.6256034307642904   0.4039670551005887   
O   0.33333333333333337   0.6666666666666667   0.33333333333333337   
H   0.7696487643580644   0.5163438766363596   -0.049283653305118545   
H   0.8199591105229248   0.42058560941331063   0.0163159383466523   
O   0.8333333333333334   0.5   0.0   
H   0.3512457256673911   0.43336791560284305   0.877954366960205   
H   0.3519739979057098   0.47326399378951534   0.7579049785297017   
O   0.33333333333333337   0.5   0.8333333333333334   
H   -0.04237076407160144   0.8532420121903583   0.2341950900921103   
H   0.04425520487101014   0.7699838176360204   0.1945958774487542   
O   0.0   0.8333333333333334   0.16666666666666669   
H   0.48427417581965004   0.7828857521303583   0.6037423858460852   
H   0.5055872239064413   0.7793846063269917   0.7283922115859622   
O   0.5   0.8333333333333334   0.6666666666666667   
H   -0.013469963852800958   0.05751193309316104   0.6095469438219131   
H   -0.04516246643153988   -0.06186350141202266   0.6369179871827944   
O   0.0   0.0   0.6666666666666667   
H   0.3095780177404194   0.0895925567993681   0.8490493023271343   
H   0.26060652104497073   0.20484271197361226   0.8310693873832771   
O   0.33333333333333337   0.16666666666666669   0.8333333333333334   
H   0.5272689821151005   0.5897512896348661   0.17626627617079493   
H   0.4911059889224963   0.6695806494485793   0.08503254155057677   
O   0.5   0.6666666666666667   0.16666666666666669   
H   0.6006910674738883   0.8791603472072986   0.1839533731985288   
H   0.6629605454321057   0.8316719356390017   0.08459822245535323   
O   0.6666666666666667   0.8333333333333334   0.16666666666666669   
H   0.8127971609998556   0.41273804970922595   0.17165482818402122   
H   0.7981700496391111   0.31297969533125075   0.09524539524078628   
O   0.8333333333333334   0.33333333333333337   0.16666666666666669   
H   0.13516450050607673   0.12352098628312821   0.27090105879842963   
H   0.11378065431749555   0.14756191855824652   0.39324830149394074   
O   0.16666666666666669   0.16666666666666669   0.33333333333333337   
H   0.6240040955649135   0.2928541147266973   0.7240518825341137   
H   0.7425249047154737   0.3285155863429717   0.6978763149542853   
O   0.6666666666666667   0.33333333333333337   0.6666666666666667   
H   0.8608116991879967   0.6200145556709221   0.771525202300536   
H   0.7786768265207505   0.6158074328212071   0.86765140011846   
O   0.8333333333333334   0.6666666666666667   0.8333333333333334   
H   0.32574336870118364   0.2416748425562881   0.19934526973907155   
H   0.4150984280166013   0.16066396677467573   0.16117467271069938   
O   0.33333333333333337   0.16666666666666669   0.16666666666666669   
H   0.5374049218564271   0.21852846078135693   0.6150628756790898   
H   0.5308486138646699   0.1918316592781497   0.7385472014564273   
O   0.5   0.16666666666666669   0.6666666666666667   
H   0.9146277036745548   0.17000882099284909   -0.011479567389661284   
H   0.8098319494258311   0.23599177126423387   -0.037328808434478875   
O   0.8333333333333334   0.16666666666666669   0.0   
H   0.05621547145338417   0.8564373152907941   0.8886302762791467   
H   -0.06708143892763194   0.829277125873502   0.8806128515691473   
O   0.0   0.8333333333333334   0.8333333333333334   
H   0.21520920031959714   0.6106938058598876   0.8688634106176358   
H   0.09860581572670275   0.6222628869896281   0.821178086240391   
O   0.16666666666666669   0.6666666666666667   0.8333333333333334   
H   0.06874738544424597   0.3086839519974262   0.37098874604527654   
H   0.005414332651069449   0.29146654175015185   0.2628380719561069   
O   0.0   0.33333333333333337   0.33333333333333337   
H   0.10312270077934563   0.21610069786906308   -0.01643672931458509   
H   0.2295769432140189   0.21557090689776104   -0.02005984806334625   
O   0.16666666666666669   0.16666666666666669   0.0   
H   0.20646734970001604   0.4917718754535234   -0.07141378514471829   
H   0.2271700189593637   0.52806396328161   0.047994618848821995   
O   0.16666666666666669   0.5   0.0   
H   0.5852800764366024   0.6777648714003444   0.33551917289341976   
H   0.6793278152618297   0.6628278270570876   0.2522365779181345   
O   0.6666666666666667   0.6666666666666667   0.33333333333333337   
H   0.35140111005939156   0.8984726213114551   0.880046861545727   
H   0.3406262530031372   0.8659479136635578   0.7582678446934624   
O   0.33333333333333337   0.8333333333333334   0.8333333333333334   
H   0.5913996863087736   0.4777902193677076   0.4756415841188422   
H   0.6643714653199172   0.4774518707357212   0.5789812574578851   
O   0.6666666666666667   0.5   0.5   
H   0.551480007980353   0.005365395513920035   0.5638180728437601   
H   0.4512466616183912   0.06457674061276802   0.514306700550759   
O   0.5   0.0   0.5   
H   0.8598573409526511   -0.07773148637430863   0.5024531934331613   
H   0.8602408663316451   0.022925628822269256   0.42582368758681943   
O   0.8333333333333334   0.0   0.5   
H   0.4130431493026949   0.16879355068274088   0.5198380118631416   
H   0.2998377221648703   0.19792973018812954   0.5682084305923658   
O   0.33333333333333337   0.16666666666666669   0.5   
H   0.8594101871547889   0.33633916784353196   0.9111965965955497   
H   0.9019968387809556   0.30917038833732285   0.7952124700045264   
O   0.8333333333333334   0.33333333333333337   0.8333333333333334   
H   0.36775234870804485   0.27088124613960146   -0.040826379927093086   
H   0.39893803632507946   0.36427108414421827   0.03860833630574925   
O   0.33333333333333337   0.33333333333333337   0.0   
H   0.6366698642562131   -0.07111568974162566   0.3051468892530578   
H   0.6263840854628683   0.006297443458594202   0.4046732307934129   
O   0.6666666666666667   0.0   0.33333333333333337   
H   0.42076467781332066   0.655143819213321   0.851791741084532   
H   0.5251344052084573   0.7083684081652051   0.8995220902560588   
O   0.5   0.6666666666666667   0.8333333333333334   
H   0.4577131627512282   0.8897962528370068   -0.042136530811008134   
H   0.46589939902087196   0.7642777670423835   -0.02863918450773314   
O   0.5   0.8333333333333334   0.0   
H   0.04849239613330237   0.527552503610801   0.8936746307522416   
H   0.046363907915182793   0.43928180923661597   0.8030775162823394   
O   0.0   0.5   0.8333333333333334   
H   0.8918207197792374   0.7756192286678824   -0.00018127758354931144   
H   0.7796199239293535   0.8007305242547375   -0.05294951937982569   
O   0.8333333333333334   0.8333333333333334   0.0   
H   0.21386332909967645   0.2700675538877918   0.52283946843738   
H   0.17298988171539056   0.3816879629543816   0.5661329861553845   
O   0.16666666666666669   0.33333333333333337   0.5   
H   0.8091166718568916   0.5161127318252304   0.5898183856694116   
H   0.7607148826290782   0.4952049800012867   0.7048149761009661   
O   0.8333333333333334   0.5   0.6666666666666667   
H   0.08821086357492866   0.8542637784423747   0.6792495336268355   
H   0.18494613132760315   0.7986911691662097   0.7388989776202635   
O   0.16666666666666669   0.8333333333333334   0.6666666666666667   
H   -0.04346787362482255   0.047934310993063764   0.383974925965538   
H   -0.025861609227474953   0.027550162688732505   0.26036833613495597   
O   0.0   0.0   0.33333333333333337   
H   0.5237925320161286   0.3704356553100726   0.2360140403470399   
H   0.5370513485637565   0.26045749698992743   0.17491500947147326   
O   0.5   0.33333333333333337   0.16666666666666669   
H   0.39425202884885685   0.34989275901215733   0.3859301304795846   
H   0.34609358159044384   0.3913159318359027   0.276527352596476   
O   0.33333333333333337   0.33333333333333337   0.33333333333333337   
H   0.3618104770005068   0.5032361041875953   0.42299152624278513   
H   0.34902353765838334   0.5766003811776229   0.5252571614369176   
O   0.33333333333333337   0.5   0.5   
H   0.6978416179003799   0.9092556267771886   0.5039563728300294   
H   0.6865722527075772   0.804812020605085   0.5744447948267362   
O   0.6666666666666667   0.8333333333333334   0.5   
H   0.6936959170119079   0.46871387540003584   0.7623240160189186   
H   0.6894959323580194   0.5784975320473684   0.825045559046141   
O   0.6666666666666667   0.5   0.8333333333333334   
H   -0.07021037612867567   0.2037256501294005   0.1454803517263999   
H   0.03253611632185593   0.15223075804228803   0.09260769834379094   
O   0.0   0.16666666666666669   0.16666666666666669   
H   0.6295802509787259   0.23428882714578184   0.13831942172597583   
H   0.7336824861051218   0.19939029563592478   0.2011596973285872   
O   0.6666666666666667   0.16666666666666669   0.16666666666666669   
H   0.11976772611230081   -0.04838394837407639   0.11964318288693986   
H   0.24158873879101628   -0.021546735673459428   0.14070233723990724   
O   0.16666666666666669   0.0   0.16666666666666669   
H   0.062303516721219275   0.4529895464896282   0.4743092589229625   
H   -0.0037065488460067907   0.5549894195418112   0.4390561705643935   
O   0.0   0.5   0.5   
H   0.48251772535850257   0.06161737408264784   0.7818610651038512   
H   0.4250110724322102   -0.031227739976785154   0.8457113020820635   
O   0.5   0.0   0.8333333333333334   
H   0.46337144309101963   0.4539173905860083   -0.05732771616358467   
H   0.5473116272422767   0.5480000146843957   -0.04700354912296642   
O   0.5   0.5   0.0   
H   0.40955164481051903   0.008560071085209077   0.02948252517598065   
H   0.2966852772941314   0.06557528526201906   0.0332945500573563   
O   0.33333333333333337   0.0   0.0   
H   0.6313618270247271   0.2762836004587272   0.04744071446513511   
H   0.6433530343301964   0.4019229139050535   0.038777172362678185   
O   0.6666666666666667   0.33333333333333337   0.0   
H   0.5068807761036178   0.5469868788046074   0.5996098754178866   
H   0.5478820682998955   0.5412827965707006   0.7191525062312174   
O   0.5   0.5   0.6666666666666667   
H   0.3176965467084317   0.5800969814964451   0.1570911995044394   
H   0.27275491531365037   0.46720835726577975   0.1218705892804348   
O   0.33333333333333337   0.5   0.16666666666666669   
H   0.16356999223987548   0.3961948469140783   0.886159139810866   
H   0.11342346275173824   0.28143133157352423   0.8683057304826223   
O   0.16666666666666669   0.33333333333333337   0.8333333333333334   
H   0.7325841210312509   0.7072292630502871   0.027591485949146122   
H   0.6283787194569237   0.6499363085595183   0.07075205529339745   
O   0.6666666666666667   0.6666666666666667   0.0   
H   0.37442215521027117   0.7347782218823784   0.02059732689044348   
H   0.28598007523444613   0.6567896951278892   0.06642167938867409   
O   0.33333333333333337   0.6666666666666667   0.0   
H   0.7586715163545598   0.03375996596197509   0.16053454665448108   
H   0.86283186567569   0.014523933147617636   0.09136316696220449   
O   0.8333333333333334   0.0   0.16666666666666669   
H   0.18760884279629422   0.46898712607103615   0.40648626917183067   
H   0.18798625926012708   0.578700568169008   0.3435029279021281   
O   0.16666666666666669   0.5   0.33333333333333337   
%ENDBLOCK positions_frac

