%BLOCK lattice_cart
12.02970798665784   0   0
0   12.02970798665784   0
0   0   12.02970798665784
%ENDBLOCK lattice_cart

%BLOCK positions_frac
H   -0.049009415814124366   -0.06334849234396948   0.709034572066812   
H   -0.05181930565198162   0.07309813235711075   0.6801357548444233   
H   0.01315056711853391   0.005016470448652501   0.5771574976537096   
H   0.07912035834609071   0.010703033169162338   0.7095083251879862   
C   0.0   0.0   0.6666666666666666   
H   0.546043748697657   0.7558219529968491   0.675719448166916   
H   0.5623198439454213   0.8931598115735302   0.69399839329864   
H   0.4292069461693743   0.858534217434168   0.7172952425755522   
H   0.48107031109768644   0.8472243681714956   0.5791526691698208   
C   0.5   0.8333333333333333   0.6666666666666666   
H   0.890306288120284   0.7193323999275193   0.21346834069262582   
H   0.8911384475403895   0.625006861659554   0.110693252022124   
H   0.7711318431455284   0.6960717065609761   0.10770640906952025   
H   0.7958665619890635   0.6057345156746047   0.22228597760457855   
C   0.8333333333333333   0.6666666666666666   0.16666666666666666   
H   0.4320427753805862   0.05671334508630113   0.5193753926370543   
H   0.5200072141548022   0.026019023568041554   0.4155445944712777   
H   0.4919832101091675   -0.08952099255863977   0.4885232103855839   
H   0.570319136632635   0.017335821848292406   0.5544488937699972   
C   0.5   0.0   0.5   
H   0.3579038883043476   0.5800492241529062   -0.010183329980076036   
H   0.414120439028281   0.7056214101724851   0.012882749726692793   
H   0.28713235126172587   0.7001794111684626   0.07037299865905752   
H   0.2970555987580906   0.6970978379637246   -0.07725194830079506   
C   0.3333333333333333   0.6666666666666666   0.0   
H   -0.027967918769628168   0.3267319218237485   -0.08593142972433289   
H   -0.07901114109500879   0.3463154784903084   0.04241105066700424   
H   0.048813558059373686   0.4015798043813544   0.034200138417368006   
H   0.0358275548619086   0.2543724532938159   0.02629751822308021   
C   0.0   0.3333333333333333   0.0   
H   0.047090447085076   0.2325512093946988   0.7926920913304475   
H   0.017672830196690654   0.18464470635386485   0.9203646776325902   
H   0.01984111253325377   0.07831636026516176   0.8300856663408106   
H   -0.0884144124051122   0.1784170952080351   0.8173704752921085   
C   0.0   0.16666666666666666   0.8333333333333333   
H   0.35981840741897514   0.7287680916755247   0.39376467943151816   
H   0.258928580872575   0.6345103152630855   0.3738289578420879   
H   0.3770413610005782   0.5894880735883733   0.3148112703654585   
H   0.31028986193377395   0.7077071076198759   0.2559080508933241   
C   0.3333333333333333   0.6666666666666666   0.3333333333333333   
H   -0.04521631842765931   0.33526297857773735   0.7451635121177459   
H   -0.03243900608213107   0.40794315421091243   0.6267783320096472   
H   -0.012033383840258979   0.27243581253460797   0.6006614898801966   
H   0.08861233561864305   0.34361706964152483   0.6825440868741154   
C   0.0   0.3333333333333333   0.6666666666666666   
H   -0.03503288634785609   0.5797884174183932   0.8085039344542259   
H   -0.016500138052937933   0.4506225910676623   0.7591739734382125   
H   -0.03363783335410078   0.4456173280837135   0.8975284646999614   
H   0.08948829151346865   0.5084891227380106   0.8447251815517219   
C   0.0   0.5   0.8333333333333333   
H   -0.029970347781355003   0.4173031241740303   0.18841520020757807   
H   0.053101027048830046   0.5178681898576515   0.23787763805634576   
H   -0.05055197402441155   0.5751543869787861   0.16415474135538557   
H   0.05061536178981102   0.49507387011889853   0.09167458625831676   
C   0.0   0.5   0.16666666666666666   
H   0.2849338311981684   -0.043700298781412725   0.2704225567670344   
H   0.3031222538173757   -0.04023261287373954   0.4086899605437098   
H   0.3235800710554532   0.08723088048179668   0.3558197980176882   
H   0.4212894608078986   -0.01872132627468476   0.3222326436752007   
C   0.3333333333333333   0.0   0.3333333333333333   
H   0.16913138009636525   0.4157247105936236   0.6998569440362867   
H   0.1919983049148321   0.4850305666898548   0.5809682542033744   
H   0.22322755926261137   0.5670317420042876   0.6894175945886654   
H   0.08138861517796556   0.5305876840831009   0.6680953882680369   
C   0.16666666666666666   0.5   0.6666666666666666   
H   0.6991022732898825   0.29658837043611236   -0.07620848281757887   
H   0.5776752179675175   0.3312362298484888   -0.016915021256029773   
H   0.6769471478293432   0.41979409293018244   0.02507673195795388   
H   0.685416165523324   0.27907449996882966   0.07010298868977405   
C   0.6666666666666666   0.3333333333333333   0.0   
H   0.7802995474668631   0.10687650433020404   0.6239753587323785   
H   0.7767419323692113   0.23704754781777784   0.6740109592808328   
H   0.9060256083714029   0.20724666706310435   0.6309022926849219   
H   0.8536852285217519   0.13547285912495147   0.7492665483977043   
C   0.8333333333333333   0.16666666666666666   0.6666666666666666   
H   0.9081131548425597   0.2881576442300096   0.8093098211467394   
H   0.8353630333979276   0.3225201176502774   0.9232719146704372   
H   0.7483711003399443   0.3075590664004786   0.8152474311567097   
H   0.8432465006627146   0.42111754174685256   0.8131924397234941   
C   0.8333333333333333   0.3333333333333333   0.8333333333333333   
H   0.9091853046924285   0.8761411492266981   0.35831258608577055   
H   0.835545892853528   0.8462159793616199   0.24367210570192718   
H   0.7490224713980401   0.8606831112039233   0.35213923503595534   
H   0.8411738816660755   0.7448874301969826   0.3513844205285295   
C   0.8333333333333333   0.8333333333333333   0.3333333333333333   
H   0.14550640681180965   0.60169329893307   0.892837103104005   
H   0.11731359099215252   0.7355406545549681   0.8654369381545858   
H   0.14233913127259584   0.6678400063224883   0.7460591216531716   
H   0.2547513670954875   0.6866772833090904   0.840450530860886   
C   0.16666666666666666   0.6666666666666666   0.8333333333333333   
H   0.6108818783949121   0.5678993675422923   0.5220845424114602   
H   0.6324578676342933   0.4330533360654816   0.5505756461697989   
H   0.754334383237379   0.49475204225303476   0.5222895522488604   
H   0.6565094602979482   0.47983430797394594   0.4122493888762878   
C   0.6666666666666666   0.5   0.5   
H   0.24469165690517367   0.356088140986877   0.827777825296283   
H   0.1292185462264597   0.40277532231719865   0.813035735345416   
O   0.16666666666666666   0.3333333333333333   0.8333333333333333   
H   0.6068512242449313   0.8724083206448082   0.12752842121392888   
H   0.7270190168141462   0.8876519171544421   0.1600614167876833   
O   0.6666666666666666   0.8333333333333333   0.16666666666666666   
H   0.11290025978647533   0.8857651260041658   -0.03156936253925884   
H   0.23657993849510706   0.8654926764867474   -0.026729293159419288   
O   0.16666666666666666   0.8333333333333333   0.0   
H   0.5152114921368196   -0.023454437428977765   0.9098515920333341   
H   0.5729148210303637   -0.012087728636887417   0.7990716968702334   
O   0.5   0.0   0.8333333333333333   
H   0.3047416481451193   0.2423792471043081   0.4906906098916013   
H   0.30703857488715813   0.13203418580004678   0.43111080643599364   
O   0.3333333333333333   0.16666666666666666   0.5   
H   0.8428512974303422   0.5370487745027449   0.5947407276049385   
H   0.7720798232863203   0.5435595025426223   0.6980851530684393   
O   0.8333333333333333   0.5   0.6666666666666666   
H   0.33230733538081547   0.4204680064796024   0.1490554947155589   
H   0.3373690795705885   0.4973928665808489   0.24798984694302972   
O   0.3333333333333333   0.5   0.16666666666666666   
H   0.1943920943470121   0.8923773285220524   0.6178645013999997   
H   0.19337558785816777   0.8597303435485167   0.738960341515192   
O   0.16666666666666666   0.8333333333333333   0.6666666666666666   
H   0.23564083321234708   -0.01680117742221606   0.46003965929606483   
H   0.14038722580695942   0.06477262351803419   0.45816171283010293   
O   0.16666666666666666   0.0   0.5   
H   0.30637413235064687   0.2410046348283545   0.8137473175418143   
H   0.26572185777936436   0.12264325940140366   0.8220562757033276   
O   0.3333333333333333   0.16666666666666666   0.8333333333333333   
H   0.8577712750796485   0.883304119474769   0.6071498490582862   
H   0.7563578247509531   0.8193409796462373   0.6439613994496141   
O   0.8333333333333333   0.8333333333333333   0.6666666666666666   
H   0.5857763183132918   0.34230442344375744   0.670246489025239   
H   0.690099784050531   0.3839310606815682   0.7260577690262485   
O   0.6666666666666666   0.3333333333333333   0.6666666666666666   
H   0.18764144974326005   0.4266736166463484   0.028632918499199432   
H   0.197168977391035   0.4960294183642969   -0.07543465758235349   
O   0.16666666666666666   0.5   0.0   
H   0.6238050739787153   0.765565890822873   0.48561244807264836   
H   0.6082755966685841   0.8822780836967554   0.5288346735538992   
O   0.6666666666666666   0.8333333333333333   0.5   
H   0.1920881587511071   0.7089732025491579   0.43518913050696795   
H   0.1912233697189182   0.7154546342734658   0.5604420929040357   
O   0.16666666666666666   0.6666666666666666   0.5   
H   0.3313019549389406   0.8593533959201234   0.5771710689793587   
H   0.35757333081438075   0.7562960498027179   0.5106875399864049   
O   0.3333333333333333   0.8333333333333333   0.5   
H   0.5440546261427894   0.7021903856206133   0.774734704085554   
H   0.4530109655347782   0.6170987435225103   0.7889306793831488   
O   0.5   0.6666666666666666   0.8333333333333333   
H   0.7134498839206849   0.01939761263421046   -0.06380914707214845   
H   0.6598602946693648   0.07259316205063972   0.0363379989314564   
O   0.6666666666666666   0.0   0.0   
H   0.8134755132507954   0.4801602546642985   0.07647611083993933   
H   0.7677894811725666   0.5431396600738281   -0.02189788152449355   
O   0.8333333333333333   0.5   0.0   
H   0.35055822917820506   0.09598697572063634   0.20333038570232342   
H   0.35419017056682933   0.14929412306868858   0.0898569595186087   
O   0.3333333333333333   0.16666666666666666   0.16666666666666666   
H   0.05841699961413677   0.2074391393437054   0.4604828686453496   
H   0.04465946498869017   0.12409666787120141   0.5531965359031644   
O   0.0   0.16666666666666666   0.5   
H   0.8190029516532513   0.6260953072253248   0.4308252286118469   
H   0.7928357312245025   0.6202976103934519   0.553351653080152   
O   0.8333333333333333   0.6666666666666666   0.5   
H   0.666924903009515   0.1375605449113662   0.9094208555230818   
H   0.6948537743099134   0.1021216595084195   0.7923946834255936   
O   0.6666666666666666   0.16666666666666666   0.8333333333333333   
H   0.05854112910777916   0.04130104243511798   0.3721109575408262   
H   0.03525736532907534   -0.01165169269027662   0.26082333202232727   
O   0.0   0.0   0.3333333333333333   
H   0.35441623717901993   0.01495166709646786   -0.0772560862268375   
H   0.31248932737166446   0.074782010853455   0.024692555777040822   
O   0.3333333333333333   0.0   0.0   
H   0.20077381584781998   0.4008560659821765   0.19689789212952252   
H   0.19034952429453017   0.2784076526002584   0.2219734103170145   
O   0.16666666666666666   0.3333333333333333   0.16666666666666666   
H   0.5489222036300831   0.8885751464800792   0.034518170792429054   
H   0.5431181535875437   0.8144457493375334   -0.06648780372836227   
O   0.5   0.8333333333333333   0.0   
H   0.3583426880535786   0.5999005886552823   0.7060794443672208   
H   0.3610032774533331   0.6511455892409806   0.5916332448430515   
O   0.3333333333333333   0.6666666666666666   0.6666666666666666   
H   0.8388747158839382   0.014452952186987993   0.7533524025114985   
H   0.7730101444024202   -0.05473553102945708   0.8346289269221303   
O   0.8333333333333333   0.0   0.8333333333333333   
H   0.660059604474648   0.1360177818128938   0.5751900035179517   
H   0.7080733430020273   0.1070611872622764   0.4629970538679674   
O   0.6666666666666666   0.16666666666666666   0.5   
H   0.3061110827495799   0.8114459207253083   0.7597369048527335   
H   0.38241214769277737   0.8952454757149538   0.8134662588278155   
O   0.3333333333333333   0.8333333333333333   0.8333333333333333   
H   0.4259365242236224   0.33612606092353414   0.5338134037202331   
H   0.5066830675304599   0.2535631395866325   0.4848805806786191   
O   0.5   0.3333333333333333   0.5   
H   0.4863952795630783   0.5775876215589534   0.020775384599965068   
H   0.5015808139716907   0.46477301664080595   0.07343776081292643   
O   0.5   0.5   0.0   
H   -0.022091773493368085   0.42910537806597154   0.5335029874394436   
H   0.026488843810624097   0.5401516701029314   0.5657474606668603   
O   0.0   0.5   0.5   
H   0.6395776726420083   0.07404826244189305   0.6461828858953544   
H   0.6391940625753894   -0.04402001528432063   0.6038650876942336   
O   0.6666666666666666   0.0   0.6666666666666666   
H   0.7286557275704126   0.8663942057152269   0.7920916179441978   
H   0.6895504401918007   0.8488455374670296   0.9099639308436198   
O   0.6666666666666666   0.8333333333333333   0.8333333333333333   
H   0.13903743884073905   0.0644907065093038   0.12526475141758125   
H   0.13179650608639995   -0.0607234182282877   0.12503395810239606   
O   0.16666666666666666   0.0   0.16666666666666666   
H   0.8939264693443293   0.6122870272566118   0.8361388152177802   
H   0.7948540740149604   0.642895283447927   0.7655778023060005   
O   0.8333333333333333   0.6666666666666666   0.8333333333333333   
H   0.15386698247820332   0.4213318717576037   0.3501867521595573   
H   0.14155123343112713   0.5345681136022328   0.4026932971308506   
O   0.16666666666666666   0.5   0.3333333333333333   
H   0.3403568381247666   -0.05981172791483831   0.6118052810944384   
H   0.31262602011628704   -0.042649050241903796   0.7329147589819426   
O   0.3333333333333333   0.0   0.6666666666666666   
H   0.03995163479559983   0.7753896842473196   0.5410237059561244   
H   0.062268970328561914   0.8785420817222903   0.47325512299629574   
O   0.0   0.8333333333333333   0.5   
H   0.6039727021299296   0.36439833339135796   0.2916083213539472   
H   0.6662427196917715   0.25651069347280575   0.30622897360208745   
O   0.6666666666666666   0.3333333333333333   0.3333333333333333   
H   0.10555657225722086   0.3778607165268801   0.5303218164004448   
H   0.16448008727719737   0.35599628810936174   0.42178137437916813   
O   0.16666666666666666   0.3333333333333333   0.5   
H   0.3534632502875176   0.25439767831193827   0.0007020344575453515   
H   0.3997347821478627   0.36552938550418795   -0.03450805503881172   
O   0.3333333333333333   0.3333333333333333   0.0   
H   0.025431636179769103   0.3062464912381549   0.4058321533868304   
H   0.07078654529379189   0.33795691804517214   0.29327797773135394   
O   0.0   0.3333333333333333   0.3333333333333333   
H   0.5899570645313335   0.0022325282875947858   0.3059984325597324   
H   0.6588315844040381   -0.051353003014793744   0.39608701537605534   
O   0.6666666666666666   0.0   0.3333333333333333   
H   0.4544761857372603   0.28740847654414037   0.21621496539106608   
H   0.44352196742241046   0.3592359082809965   0.11398049685082175   
O   0.5   0.3333333333333333   0.16666666666666666   
H   0.8112716980592515   -0.03809952020861937   0.0981228496477333   
H   0.7632377151927423   0.036155511228855845   0.1870609641021548   
O   0.8333333333333333   0.0   0.16666666666666666   
H   0.5304577523401868   0.11110095677471528   -0.051198840311143454   
H   0.4256582373272196   0.13601330956907628   0.013046764501983502   
O   0.5   0.16666666666666666   0.0   
H   -0.024725981594069992   0.9105140782038991   0.1749311992035363   
H   0.004084341305139818   0.8274075053810532   0.08552021411449574   
O   0.0   0.8333333333333333   0.16666666666666666   
H   0.36821045554838716   0.5110360622214812   0.4272103323317217   
H   0.35536142593573433   0.5686907899253065   0.5378534352253013   
O   0.3333333333333333   0.5   0.5   
H   0.5506430354365788   0.6643496566732143   0.23043545581212785   
H   0.4882872314202327   0.587080772755677   0.15380429576530688   
O   0.5   0.6666666666666666   0.16666666666666666   
H   0.114745697470858   0.8960484969983481   0.3305828339501491   
H   0.14089315059746543   0.7896049704923941   0.26961441781132817   
O   0.16666666666666666   0.8333333333333333   0.3333333333333333   
H   -0.009535815982947931   0.24035443627742167   0.20006913462863413   
H   0.06215559963478721   0.1810016702273141   0.11599386183434181   
O   0.0   0.16666666666666666   0.16666666666666666   
H   -0.06982069286135954   0.6398377483911968   0.36561063240166425   
H   0.02495925488051807   0.7177319224767624   0.39169358768059803   
O   0.0   0.6666666666666666   0.3333333333333333   
H   0.8643808241685822   0.7900007078653095   -0.061602604859711425   
H   0.8467915332942512   0.9091489478703064   -0.026597245887717152   
O   0.8333333333333333   0.8333333333333333   0.0   
H   0.9106459960285084   0.47698896182660705   0.32194086425137636   
H   0.8352147160452188   0.5207370954665596   0.4120923157627733   
O   0.8333333333333333   0.5   0.3333333333333333   
H   0.11594722352384583   0.6056631672250781   0.14815571893887866   
H   0.21535814636647038   0.666147590132364   0.10135652651359582   
O   0.16666666666666666   0.6666666666666666   0.16666666666666666   
H   -0.0431924740311821   0.06848447991537539   0.008990563964781394   
H   0.01641839155574725   0.0028778036927827244   -0.07974144911679618   
O   0.0   0.0   0.0   
H   0.5315028246731126   0.5647570344774492   0.6285793647679996   
H   0.4234872042155065   0.501827550852431   0.6387561635945112   
O   0.5   0.5   0.6666666666666666   
H   -0.05715998029704714   0.6852518633770625   0.6116769298215453   
H   -0.030176053068444744   0.5973184866594481   0.6969450383784256   
O   0.0   0.6666666666666666   0.6666666666666666   
H   -0.0093470730086726   0.8252896775081632   0.7528070899728276   
H   0.005521553427945324   0.914348360174482   0.8398618795948612   
O   0.0   0.8333333333333333   0.8333333333333333   
H   0.8639758717735753   0.0746495585001717   0.5111813369632772   
H   0.8232217090589511   -0.02388016674177859   0.5772271761333871   
O   0.8333333333333333   0.0   0.5   
H   0.7739383523929717   0.28661902738238626   0.13622731875587818   
H   0.7923326622433845   0.4021683073568931   0.18140557313791864   
O   0.8333333333333333   0.3333333333333333   0.16666666666666666   
H   0.13326686447755873   0.2302687169812498   0.7050825026217558   
H   0.14475615700693692   0.1822816312427172   0.5897729316139447   
O   0.16666666666666666   0.16666666666666666   0.6666666666666666   
H   0.7829688763267277   0.20680988041372958   0.04988474619666832   
H   0.9025972763318282   0.16980342960834477   0.04276927590183841   
O   0.8333333333333333   0.16666666666666666   0.0   
H   0.6668553194018498   0.7436658499013951   0.30673193799495196   
H   0.6938019285373713   0.6277583727698931   0.2671036853509592   
O   0.6666666666666666   0.6666666666666666   0.3333333333333333   
H   0.5378002946392957   0.34922933715881727   0.9037250859055007   
H   0.43737689401682256   0.3852479279041884   0.8377791752313427   
O   0.5   0.3333333333333333   0.8333333333333333   
H   0.3206070338226758   0.5340013348359354   0.7604053238119   
H   0.29436443140527163   0.42908185120881515   0.8239213783201015   
O   0.3333333333333333   0.5   0.8333333333333333   
H   0.6469443186042108   0.5109912529735364   0.7550596762858074   
H   0.7173616085052028   0.4365120560351375   0.8273460229421377   
O   0.6666666666666666   0.5   0.8333333333333333   
H   0.503550842757348   0.022754127277156384   0.08852458293334037   
H   0.5404433649463377   0.061222783991120494   0.20205944834333853   
O   0.5   0.0   0.16666666666666666   
H   0.9145816642879263   0.3334360732236665   0.4940634855153498   
H   0.8198852364899861   0.4099199523498335   0.5242936724587293   
O   0.8333333333333333   0.3333333333333333   0.5   
H   0.5748164363252977   0.19329035831800248   0.3515053981872757   
H   0.5038293695672849   0.09039123326292475   0.361687137847139   
O   0.5   0.16666666666666666   0.3333333333333333   
H   0.6459931165188025   0.5657890560832981   0.21003656944003052   
H   0.6345821002322668   0.5189871354530551   0.09423315697244747   
O   0.6666666666666666   0.5   0.16666666666666666   
H   0.12148574035635909   0.13379363807372469   0.27404933944384574   
H   0.2232789964781052   0.10888330615162191   0.34295993208511955   
O   0.16666666666666666   0.16666666666666666   0.3333333333333333   
H   0.6418904213330907   0.5948956901055286   -0.02952301870150901   
H   0.7047104173392432   0.6974478843154384   -0.06512859370077313   
O   0.6666666666666666   0.6666666666666666   0.0   
%ENDBLOCK positions_frac

