
%BLOCK positions_frac
C   0.0   0.0   0.0   
C   0.5   0.5   0.0   
C   0.5   0.0   0.5   
C   0.0   0.5   0.5   
H   -0.015540973229812743   0.17468268863430556   0.047404791111640705   
H   -0.06268591284437484   -0.08124544072796555   0.14990808006763298   
H   0.15655798653252936   -0.08908523856926709   -0.023583784677504698   
H   -0.11136510800353887   -0.03521394124069877   -0.1391422611553891   
H   0.5980943084736219   0.4121010961151861   0.1251162144516367   
H   0.5899412357722617   0.4546892849684323   -0.15119620031225747   
H   0.49105863543742817   0.6804515777917278   -0.018975190381468207   
H   0.3324487938008919   0.4300338294477672   -0.005840039148634998   
H   0.570556288328317   -0.134058318449408   0.3997355735585832   
H   0.5618296381334095   0.1453041922608388   0.4101859402014662   
H   0.5495873360706965   0.041738878461430345   0.6697107536485873   
H   0.3187223088608189   -0.005264235655135508   0.4893480379275625   
H   -0.050245126915923456   0.6683708063167003   0.4538537479393538   
H   -0.10317479724659208   0.47323113486259927   0.6471093703683013   
H   0.16321068768952648   0.45282324188035455   0.5643381900196928   
H   -0.04950729589543983   0.3839679642636493   0.3692774995887189   
%ENDBLOCK positions_frac


