%BLOCK lattice_cart
11.49357350003748   0   0
0   11.49357350003748   0
0   0   11.49357350003748
%ENDBLOCK lattice_cart

%BLOCK positions_frac
H   0.8947306337973432   0.18352754377690986   -0.05671163286611426   
H   0.7649083888613867   0.16496256179589458   -0.050845353614031974   
O   0.8333333333333334   0.16666666666666666   0.0   
H   0.8058333008932567   0.2870547526990314   0.7672109606157373   
H   0.8790726319886716   0.3929089049793407   0.7929750032749086   
O   0.8333333333333334   0.3333333333333333   0.8333333333333334   
H   0.20361703456460908   0.8997676710618109   0.6280496229382707   
H   0.15366293876172338   0.7816238789329585   0.6001297418074182   
O   0.16666666666666666   0.8333333333333334   0.6666666666666666   
H   0.7566961284961394   0.4664849409184136   0.016541059005858123   
H   0.818845664852851   0.5821076590900262   0.017848438707383424   
O   0.8333333333333334   0.5   0.0   
H   0.26545392063709605   0.33775695793947386   -0.051409569740403394   
H   0.33201768333577825   0.4112387218157306   0.034628694662465064   
O   0.3333333333333333   0.3333333333333333   0.0   
H   0.22209837474916755   0.529181679447912   0.6088230645382441   
H   0.09273899604602794   0.5200291990834047   0.6292012468209045   
O   0.16666666666666666   0.5   0.6666666666666666   
H   0.28829507438683843   0.8259475629592672   0.23868841762139967   
H   0.4122921914300725   0.8403628573607603   0.19807067124478345   
O   0.3333333333333333   0.8333333333333334   0.16666666666666666   
H   0.26906209537617864   0.6143793466712443   0.6465328363632535   
H   0.29035473170693615   0.7375303830906379   0.6866991522927187   
O   0.3333333333333333   0.6666666666666666   0.6666666666666666   
H   0.3555425147827656   0.4138963582108268   0.35025900216709294   
H   0.3482864461453361   0.29663817947117344   0.40883165837302854   
O   0.3333333333333333   0.3333333333333333   0.3333333333333333   
H   0.503633233712293   0.08147942630383936   0.0002463243660096824   
H   0.5579667879290438   0.18477008757566296   -0.05985185571155269   
O   0.5   0.16666666666666666   0.0   
H   0.35249217249357123   0.6007991520969316   0.2826920814730819   
H   0.35994985460276707   0.7318367852453282   0.2852236313648893   
O   0.3333333333333333   0.6666666666666666   0.3333333333333333   
H   0.41243196125382087   0.17896628604957193   0.4706358482556114   
H   0.33340098575380867   0.21846505426355245   0.5677277598112349   
O   0.3333333333333333   0.16666666666666666   0.5   
H   0.8760323518903481   0.5272300916036664   0.7352628976787215   
H   0.8580844669229267   0.4184498532798124   0.6640054753015961   
O   0.8333333333333334   0.5   0.6666666666666666   
H   0.793421797862056   0.844996523384728   0.5922276559418755   
H   0.7718177140447317   0.7952266088061467   0.7117647055695332   
O   0.8333333333333334   0.8333333333333334   0.6666666666666666   
H   0.6905982120423328   0.25505583250483566   0.35720886439575206   
H   0.7122810835775192   0.34269201228206275   0.26190597805712923   
O   0.6666666666666666   0.3333333333333333   0.3333333333333333   
H   0.13661287073725858   0.8315126022988044   0.2535612751157535   
H   0.15063097769702316   0.7533289865386102   0.3580777904248531   
O   0.16666666666666666   0.8333333333333334   0.3333333333333333   
H   0.011437979753465584   0.4177077772167025   0.6621663531145852   
H   -0.03002699383841427   0.32568429040983177   0.7461021673380781   
O   0.0   0.3333333333333333   0.6666666666666666   
H   0.8733339230623306   0.29170249116092534   0.10392152514252921   
H   0.8618174118943254   0.4126408284684841   0.15366261085877256   
O   0.8333333333333334   0.3333333333333333   0.16666666666666666   
H   0.7503735644506684   0.5112713638807342   0.4883278706663126   
H   0.6368564345373202   0.5757868012692006   0.4747445491564153   
O   0.6666666666666666   0.5   0.5   
H   0.541210873918943   -0.04401192448261374   0.22695548285764222   
H   0.5608567371142977   0.006209428975331299   0.10726946535939026   
O   0.5   0.0   0.16666666666666666   
H   0.2421790326761282   0.12885291040371177   0.011752846483916099   
H   0.18784664498942424   0.22705263246677967   -0.05634776513909534   
O   0.16666666666666666   0.16666666666666666   0.0   
H   0.3957816715844933   0.29175300421479966   0.7071809636937493   
H   0.369719506058263   0.40965871305172874   0.6556844160407755   
O   0.3333333333333333   0.3333333333333333   0.6666666666666666   
H   0.382928683294131   0.8580143705278572   0.7685160929662513   
H   0.3375518197962806   0.748575718049059   0.8250581894179448   
O   0.3333333333333333   0.8333333333333334   0.8333333333333334   
H   0.19764606694238004   0.4001646861780464   0.4570584814074055   
H   0.09359530616261184   0.36596640142691134   0.5294242438207323   
O   0.16666666666666666   0.3333333333333333   0.5   
H   0.6431606727048494   -0.07822252617860044   0.30886229678722993   
H   0.7091898159984289   0.026067419751090042   0.2641784464346862   
O   0.6666666666666666   0.0   0.3333333333333333   
H   -0.060344722700375664   0.8862805919116182   0.19539347008776725   
H   0.06359694971157955   0.8882484235925044   0.15217916057536615   
O   0.0   0.8333333333333334   0.16666666666666666   
H   0.46916130088938424   0.46494225061445   0.7380112938555476   
H   0.4826635085812315   0.5822895068699192   0.6807382731111361   
O   0.5   0.5   0.6666666666666666   
H   0.7830637659345939   -0.056552058573816184   0.5393060077868865   
H   0.8256419245572095   0.06695012960278167   0.5522364753859298   
O   0.8333333333333334   0.0   0.5   
H   0.7236702097411176   0.7065294598555142   0.3826454087274792   
H   0.6079142740938688   0.7278254860008799   0.3245082459030327   
O   0.6666666666666666   0.6666666666666666   0.3333333333333333   
H   0.03802374799753484   0.2614010186326039   0.30783698705488133   
H   -0.008212398829261764   0.31811464927310584   0.4168262979739524   
O   0.0   0.3333333333333333   0.3333333333333333   
H   0.7098368998028832   0.26247471514127585   0.686301181746303   
H   0.6329523164934874   0.35281218448725205   0.7425220813294267   
O   0.6666666666666666   0.3333333333333333   0.6666666666666666   
H   0.7609560787376142   0.45523746506383883   0.32804414938768267   
H   0.8908994926855001   0.4371081666175501   0.3323944112009622   
O   0.8333333333333334   0.5   0.3333333333333333   
H   0.8400759997370965   0.24274975933975748   0.6287717271285043   
H   0.7816082643077384   0.18592528170560008   0.7316570502985175   
O   0.8333333333333334   0.16666666666666666   0.6666666666666666   
H   0.7774535590608256   0.3560135261056913   0.43972407888221204   
H   0.8797036175545003   0.404620380810053   0.5061709469966647   
O   0.8333333333333334   0.3333333333333333   0.5   
H   0.18316181686495242   0.4165872426087567   0.17484123661444492   
H   0.24284208262507467   0.30455157343094513   0.1413873612169447   
O   0.16666666666666666   0.3333333333333333   0.16666666666666666   
H   0.14094762237276273   0.1208021305335482   0.40045339046559164   
H   0.09559505607510374   0.2104521225762942   0.3159613155391091   
O   0.16666666666666666   0.16666666666666666   0.3333333333333333   
H   -0.03233919598870389   0.5963913782210919   0.36918981420124636   
H   -0.017575797875409672   0.7245646036307437   0.3934086794237392   
O   0.0   0.6666666666666666   0.3333333333333333   
H   0.180793667588425   0.5386150891772024   0.25863775303349973   
H   0.20275667447579307   0.42410112915848514   0.3189458483253208   
O   0.16666666666666666   0.5   0.3333333333333333   
H   0.6115962177340363   0.5640450431649081   0.8449782929253262   
H   0.6497271423166089   0.4791253461825454   0.7524171524649139   
O   0.6666666666666666   0.5   0.8333333333333334   
H   0.7581372377846728   0.17848787034380542   0.37175121122105453   
H   0.8239965818577712   0.21640401222567066   0.26471009738396006   
O   0.8333333333333334   0.16666666666666666   0.3333333333333333   
H   0.46144528004519464   0.46875129913565433   0.4026671580297448   
H   0.4326724788711621   0.5148387240751677   0.2831641779686826   
O   0.5   0.5   0.3333333333333333   
H   0.5125081107189116   0.5109168328656453   0.08363310893397759   
H   0.5039189925439604   0.4150086968621231   -0.005589890151106637   
O   0.5   0.5   0.0   
H   0.6440161777988385   0.6668987205682335   0.7488678131828237   
H   0.6414287674905917   0.7446310532711646   0.643113962998124   
O   0.6666666666666666   0.6666666666666666   0.6666666666666666   
H   0.1859592900863595   0.06680004959182952   0.5493525585927476   
H   0.09958676327990366   0.03076939977781708   0.45729569597252573   
O   0.16666666666666666   0.0   0.5   
H   0.19882899678913155   0.40030382018872296   0.8751742868953786   
H   0.08448368060330164   0.3555782226710143   0.8287237038906753   
O   0.16666666666666666   0.3333333333333333   0.8333333333333334   
H   0.5167742710229001   0.7502646825251759   0.8329832480490311   
H   0.4520326963398813   0.6598930086630603   0.7631665155320131   
O   0.5   0.6666666666666666   0.8333333333333334   
H   0.45526315044253096   0.8982386601322179   0.03249676642895312   
H   0.4454228652600343   0.8043989958671092   -0.058773016448892774   
O   0.5   0.8333333333333334   0.0   
H   0.8885682148325612   0.6472973633747227   0.895333857035045   
H   0.7678375102986371   0.6962571535568446   0.879211729492588   
O   0.8333333333333334   0.6666666666666666   0.8333333333333334   
H   0.2322220583061795   0.7102453665023889   0.199431198269509   
H   0.20032668042931268   0.5884508393371575   0.16226044241063672   
O   0.16666666666666666   0.6666666666666666   0.16666666666666666   
H   0.7892439991095521   0.03363163534197996   0.768563195959206   
H   0.8759902610334124   0.06857258148973094   0.8606886723105787   
O   0.8333333333333334   0.0   0.8333333333333334   
H   0.6579827634882752   0.4161760339187939   0.1796381553838752   
H   0.6947122095476228   0.500695960022378   0.08614902793020567   
O   0.6666666666666666   0.5   0.16666666666666666   
H   0.4622419715585734   0.32358326688809885   0.9091580949621408   
H   0.5751562818029504   0.36578627802790964   0.8571758724125049   
O   0.5   0.3333333333333333   0.8333333333333334   
H   0.5223038494701621   -0.08193050590997901   0.8410830096932073   
H   0.49710274754645595   0.007615529825071565   0.748458504218693   
O   0.5   0.0   0.8333333333333334   
H   -0.06502968047102951   0.5475943615651945   0.5278575732714264   
H   -0.030177086070230903   0.4216830500829341   0.5150308288372001   
O   0.0   0.5   0.5   
H   0.6910017252021811   0.19354436060389454   0.5771720252308137   
H   0.6226664459624492   0.23445550470659257   0.47281947390662954   
O   0.6666666666666666   0.16666666666666666   0.5   
H   -0.01998493830019577   0.21510723581254695   0.9005958079049405   
H   0.04395361990410279   0.10425670097143586   0.8713228379731851   
O   0.0   0.16666666666666666   0.8333333333333334   
H   0.46768517602824655   0.8781078605427224   0.39830348685312905   
H   0.4286731383164858   0.8017830285020948   0.2988777960283906   
O   0.5   0.8333333333333334   0.3333333333333333   
H   0.7304358219425668   0.20508900370577052   0.20822801692609857   
H   0.6982573664052313   0.16484031944709285   0.08749079199895649   
O   0.6666666666666666   0.16666666666666666   0.16666666666666666   
H   -0.03789173304103255   0.6091478683695596   0.6164080217074224   
H   0.0782016204324037   0.6682162239075093   0.6327221175072043   
O   0.0   0.6666666666666666   0.6666666666666666   
H   0.05857931439122625   0.14290800925965727   0.10944676534548492   
H   0.04165986538442715   0.15093190633074616   0.23937842580408608   
O   0.0   0.16666666666666666   0.16666666666666666   
H   0.6913419986211342   0.6564198255501938   0.08097071830980715   
H   0.7200798231649735   0.6133308650010157   -0.03965417956666445   
O   0.6666666666666666   0.6666666666666666   0.0   
H   0.7085523050272938   0.39090715005497056   0.046914559688455267   
H   0.6460513162970267   0.3803952779583569   -0.06804636419959369   
O   0.6666666666666666   0.3333333333333333   0.0   
H   0.29247497828394675   0.5003764695078992   0.2415036901036222   
H   0.2894240373525156   0.5596317882987221   0.12440379248256882   
O   0.3333333333333333   0.5   0.16666666666666666   
H   0.6158607787367704   0.7694566964383894   0.4753288834022083   
H   0.6774126144231606   0.8140536626620865   0.5823586418608181   
O   0.6666666666666666   0.8333333333333334   0.5   
H   0.05859245515519205   0.29168279743519676   0.0458506711163576   
H   -0.001893912137957029   0.28539659114291743   -0.07048835952495167   
O   0.0   0.3333333333333333   0.0   
H   0.3248197279807341   0.040295584215335946   0.4079919657892021   
H   0.40134353058658456   -0.048846370032652124   0.3494197309332505   
O   0.3333333333333333   0.0   0.3333333333333333   
H   0.6994439140598472   0.07695487312215828   0.6832113497888757   
H   0.5835227169982888   0.018617906415163615   0.6634133333308394   
O   0.6666666666666666   0.0   0.6666666666666666   
H   0.09274113185378224   0.2035821090146873   0.6876997929776676   
H   0.22179910692237237   0.2275245014114446   0.6896202059398133   
O   0.16666666666666666   0.16666666666666666   0.6666666666666666   
H   -0.029844631837298553   0.42911537088100216   0.1298591363407432   
H   0.05558013274781917   0.4667849525454909   0.22214401744935142   
O   0.0   0.5   0.16666666666666666   
H   0.25716071700746984   0.6295080979971304   -0.009332753079326765   
H   0.3648959733494167   0.6218020054109396   0.06527701669929116   
O   0.3333333333333333   0.6666666666666666   0.0   
H   0.8631796261386476   0.7555905053270392   0.35164667499723357   
H   0.7783992806969332   0.8446876204685784   0.39754748292769576   
O   0.8333333333333334   0.8333333333333334   0.3333333333333333   
H   0.7017992832098063   0.7661488289609176   0.7943196356029067   
H   0.5985304924853606   0.7968390864485467   0.8693299817298511   
O   0.6666666666666666   0.8333333333333334   0.8333333333333334   
H   -0.021685923714057913   0.58221881746171   0.8396510664237397   
H   -0.01474303929776955   0.4861007242452501   0.7505107524191083   
O   0.0   0.5   0.8333333333333334   
H   0.5604755853995609   0.2802676907506195   0.13843781384903264   
H   0.5137504814014646   0.4009911674853237   0.11663199146411052   
O   0.5   0.3333333333333333   0.16666666666666666   
H   -0.06136319149865315   0.6134300730942941   -0.025894995992376258   
H   0.031208433655100103   0.6235749054554932   0.06662777775109992   
O   0.0   0.6666666666666666   0.0   
H   0.7072488844277094   0.8754502180309242   0.22871002737916116   
H   0.6883764922506871   0.7530097580012332   0.185292823074132   
O   0.6666666666666666   0.8333333333333334   0.16666666666666666   
H   0.7875073425713714   0.5957331050419872   0.48822989424610297   
H   0.8124248127740687   0.6858111464623601   0.5804142378245958   
O   0.8333333333333334   0.6666666666666666   0.5   
H   0.731624283490843   0.05442671943034351   0.009400383615028624   
H   0.6998569342568929   -0.054596967947330224   -0.05645975745416308   
O   0.6666666666666666   0.0   0.0   
H   0.21402246209695405   0.062334733812387993   0.867125885519267   
H   0.16654181848897454   -0.056244023176085636   0.8974170383872393   
O   0.16666666666666666   0.0   0.8333333333333334   
H   0.08897394234297488   0.6998317380802153   0.8217555265966238   
H   0.15386065887856998   0.620752854256243   0.9040302567317896   
O   0.16666666666666666   0.6666666666666666   0.8333333333333334   
H   0.3813784655743166   0.8856677518285393   0.4528523500877231   
H   0.38212562891818996   0.8254027127537462   0.5694733339657609   
O   0.3333333333333333   0.8333333333333334   0.5   
H   0.8317244464978433   0.7092478846104256   0.09281290342394338   
H   0.7749901680073221   0.6063879699377008   0.15141278965344104   
O   0.8333333333333334   0.6666666666666666   0.16666666666666666   
H   0.7716841734692865   0.7768499494280305   0.016707346114775028   
H   0.8815002529891011   0.7885468904481284   -0.05426093777387787   
O   0.8333333333333334   0.8333333333333334   0.0   
H   0.5120597977551187   0.35261100983780186   0.5821770007376166   
H   0.5212902189891465   0.25076921146333686   0.4998609361078765   
O   0.5   0.3333333333333333   0.5   
H   0.007363582126519249   -0.06236530265290728   0.05767558986965651   
H   -0.037367520178755595   0.06058485560164084   0.0469390103320699   
O   0.0   0.0   0.0   
H   0.22501633332591486   0.6384235140796579   0.5553874328366742   
H   0.10834122455944867   0.6047193153157767   0.5055493645710564   
O   0.16666666666666666   0.6666666666666666   0.5   
H   0.1872874740513791   0.7507759850628093   0.005403104003953206   
H   0.15271667578127984   0.8406724917620128   -0.08379535483182772   
O   0.16666666666666666   0.8333333333333334   0.0   
H   -0.07490512764343542   0.8543688634509049   0.7984498801079297   
H   0.015481826801993436   0.7592716054912216   0.7940230230897144   
O   0.0   0.8333333333333334   0.8333333333333334   
H   0.4267987309678547   0.20279767801863288   0.30871116417009503   
H   0.5497008602664577   0.23549436808255644   0.3412516027222029   
O   0.5   0.16666666666666666   0.3333333333333333   
H   0.3794969179117946   -0.03287636322292847   0.0637039652112557   
H   0.31876449188192013   -0.06987654832098011   -0.04663843733493713   
O   0.3333333333333333   0.0   0.0   
H   0.37539970507002257   0.16356961110764281   0.24076764911164195   
H   0.3072721973413653   0.08576358276420032   0.1599112844114436   
O   0.3333333333333333   0.16666666666666666   0.16666666666666666   
H   0.5324249595086463   0.9084027897598569   0.6908188031399579   
H   0.5211926644443124   0.7847560445582072   0.7334592184411297   
O   0.5   0.8333333333333334   0.6666666666666666   
H   0.47156483120881226   0.6953051094274108   0.5751093053861623   
H   0.48153329231813824   0.7330475536829145   0.44977365701283495   
O   0.5   0.6666666666666666   0.5   
H   0.3016156028433544   0.4358136142426263   0.7870276053992407   
H   0.30747955391194276   0.47743922490281593   0.9113892139585619   
O   0.3333333333333333   0.5   0.8333333333333334   
H   0.877261033902495   0.06995054571586531   0.14551471024901436   
H   0.7848627793628425   -0.009811190998724318   0.09720824088177128   
O   0.8333333333333334   0.0   0.16666666666666666   
H   0.3828276201918307   -0.004984080276288411   0.7359169482235226   
H   0.3359958725841957   -0.080780381811077   0.6395084674861286   
O   0.3333333333333333   0.0   0.6666666666666666   
%ENDBLOCK positions_frac

