%BLOCK lattice_cart
12.59061554194323   0   0
0   12.59061554194323   0
0   0   12.59061554194323
%ENDBLOCK lattice_cart

%BLOCK positions_frac
H   0.7376121976622996   0.28400886502850897   0.0053489795618271605   
H   0.6411790781482767   0.31603798091777807   -0.08090758147724955   
H   0.6657482260527865   0.4198943848239168   -0.0010601678367732402   
H   0.6071347788258464   0.3044833626913321   0.055842785104456   
C   0.6666666666666666   0.3333333333333333   0.0   
H   0.6242265202318175   -0.03045838097096798   0.40236886131258986   
H   0.602615589783902   0.040956229745176   0.2919228283934353   
H   0.699048092982128   -0.04818268193150648   0.26910985230168566   
H   0.7259839157339045   0.05760806235152384   0.3589762317529151   
C   0.6666666666666666   0.0   0.3333333333333333   
H   0.05812280225799127   0.2305757672621563   0.17233674981533523   
H   -0.012017474983408305   0.16348017826441577   0.08099164282164947   
H   -0.08196774674909998   0.17085424657230078   0.19420819515671459   
H   0.0357879051773396   0.09258275221757764   0.19360330690030736   
C   0.0   0.16666666666666666   0.16666666666666666   
H   0.8735125628066442   0.1318548996171073   0.06832681404819797   
H   0.8423126756688931   0.10303674538799305   -0.05801196129635169   
H   0.8618961118912263   0.23431538566214274   -0.045854134202737526   
H   0.7494035789218518   0.1774960946036302   0.018256586185409783   
C   0.8333333333333333   0.16666666666666666   0.0   
H   0.8483764053926426   0.5810478900246141   0.6402142824691074   
H   0.7609466919950144   0.48197248917675234   0.6227352868404643   
H   0.8096782535103613   0.4769558475236236   0.746692833383392   
H   0.8972753706576988   0.4483773290487938   0.6394398631298629   
C   0.8333333333333333   0.5   0.6666666666666666   
H   0.236957460154258   0.1296135579125126   0.29896685829302105   
H   0.12605131995160132   0.19348151437756891   0.2617362616221597   
H   0.16620571605962892   0.23943343313681412   0.3802328892606092   
H   0.11869807948653215   0.10645604423334566   0.3729373572992472   
C   0.16666666666666666   0.16666666666666666   0.3333333333333333   
H   0.8595704217121886   0.08530941154128599   0.319644090986781   
H   0.800670247786534   0.18627321858887055   0.25559345239411924   
H   0.8853780834284706   0.2345934415206994   0.34645127408724047   
H   0.7699110319295551   0.16704947360555328   0.39225911943462044   
C   0.8333333333333333   0.16666666666666666   0.3333333333333333   
H   0.5473708136435089   0.11890945312413242   0.7211647188663877   
H   0.4499430870329025   0.20985616336763463   0.7225572379920725   
H   0.44025647894499537   0.13596591369405742   0.6120501986096435   
H   0.5514239722347658   0.22239475522819274   0.6248966014400534   
C   0.5   0.16666666666666666   0.6666666666666666   
H   0.18980349255256965   0.05456365090031651   0.5631052962318741   
H   0.12240559374197946   -0.059037426047606395   0.5452804910903991   
H   0.22065220102135422   -0.05104640580242896   0.45556341980697224   
H   0.11324186786015321   0.04031246516439711   0.4450866214023248   
C   0.16666666666666666   0.0   0.5   
H   0.8404219512254982   0.7470833064362148   0.3356715978145296   
H   0.7987046326055264   0.8486895222167133   0.4111782026121799   
H   0.7790969792894513   0.8778240004607719   0.2826008825474613   
H   0.9122427955312706   0.8687162623161087   0.3293173357747015   
C   0.8333333333333333   0.8333333333333333   0.3333333333333333   
H   0.06454724281322924   0.8848577885886639   0.5259550973800955   
H   -0.03940319084066655   0.8177309916290444   0.5754899901250187   
H   0.009244733164046117   0.752734492026306   0.46978171393263646   
H   -0.05332687775250691   0.8776816245575704   0.4481901910945599   
C   0.0   0.8333333333333333   0.5   
H   0.6937084953430376   0.24511936089347444   0.5246717935009109   
H   0.6738897166787432   0.1230738719942843   0.5744464836330995   
H   0.7090032136600306   0.1136635492188585   0.4462127389277784   
H   0.5833390196375631   0.17076964618710114   0.476881783723505   
C   0.6666666666666666   0.16666666666666666   0.5   
H   0.2368959597760763   0.5459228543804556   0.6453659399404987   
H   0.16398970976675803   0.44347967444993913   0.6011451448159804   
H   0.08528299701955407   0.529505746728509   0.6657220244478842   
H   0.18120009540222798   0.45766847692942914   0.7407720290088943   
C   0.16666666666666666   0.5   0.6666666666666666   
H   0.22498540037838088   0.5057758512760977   0.06372085972785797   
H   0.16149461702669796   0.41407972923110814   -0.009259594898309265   
H   0.17955552098621227   0.5242264750612176   -0.08210809012878402   
H   0.09057782885575728   0.5307245544906551   0.027591187652848063   
C   0.16666666666666666   0.5   0.0   
H   0.37664490314460203   0.12713149877410368   0.7696476870356843   
H   0.3502474837095439   0.24959984161528362   0.8151458889237463   
H   0.35423458695168913   0.16408367752292508   0.9173050481450676   
H   0.24854088390149023   0.15178778063047801   0.8241877117672929   
C   0.3333333333333333   0.16666666666666666   0.8333333333333333   
H   0.647440124292303   0.21218760066768827   0.09558243662821002   
H   0.5952416137050025   0.1796592798631907   0.21383060348186228   
H   0.727901203668832   0.18720302122214708   0.2243153678130135   
H   0.6730412383757336   0.08274298186517785   0.14639444209645477   
C   0.6666666666666666   0.16666666666666666   0.16666666666666666   
H   0.49554292618951823   0.6314602447900322   0.08770195634711228   
H   0.41589039554636503   0.6730024577892625   0.1861657772531188   
H   0.5266396389306923   0.7471397760228645   0.18425050675768595   
H   0.5381486700674682   0.6110817809022225   0.22097856748771996   
C   0.5   0.6666666666666666   0.16666666666666666   
H   0.6662082019801847   0.8548322135029688   0.5838592337536045   
H   0.5935422225735207   0.7872774145770174   0.49485693206939774   
H   0.7225709243201002   0.7788951200623557   0.46250362635879466   
H   0.659224610642873   0.9048540546377082   0.4517901944579797   
C   0.6666666666666666   0.8333333333333333   0.5   
H   0.4614223138376065   0.0661016682978077   0.8737946074452698   
H   0.5150429002683348   0.035287867678559924   0.7557236646677851   
H   0.46144351314469817   -0.07395411077049618   0.8101176070754513   
H   0.575343914369512   -0.017638170457416173   0.872153078754363   
C   0.5   0.0   0.8333333333333333   
H   0.47477576837063173   0.8469185232276855   0.0816943319845456   
H   0.47905951341393677   0.909196435140447   -0.036070333099393316   
H   0.4627006814293034   0.778352474427257   -0.05550359548957707   
H   0.5859140667519959   0.8229437617768472   -0.002369189980782938   
C   0.5   0.8333333333333333   0.0   
H   0.663414248470748   0.30053288652356414   0.5866145861870367   
H   0.6151877455544347   0.27792844040902415   0.7087974350589618   
H   0.6324237044783835   0.40893310094703067   0.6913015565890013   
H   0.7473696609804551   0.3268083871219848   0.6973136063162695   
C   0.6666666666666666   0.3333333333333333   0.6666666666666666   
H   0.36550083602530675   0.020420597641624814   -0.07773695444690085   
H   0.39724386658651967   0.02749076259290954   0.05152169286341855   
H   0.3219992131720585   -0.08040482142079422   0.030023083396259555   
H   0.2620214517012756   0.04675184835526218   0.014955378217241513   
C   0.3333333333333333   0.0   0.0   
H   0.8747577577739657   -0.07399736730655314   0.1840790133097867   
H   0.8209971540259541   -0.00822008790662502   0.08137286877337124   
H   0.8683405960266474   0.07909749875966036   0.1702528028667577   
H   0.7567489943070576   0.00043540262666712844   0.20703289716469483   
C   0.8333333333333333   0.0   0.16666666666666666   
H   0.10603340318373271   0.6842066466169869   0.7740818389478727   
H   0.21608812119304566   0.7374763284337804   0.8271450575570959   
H   0.2266775180589635   0.6046111506069406   0.8268069433747474   
H   0.13031270698319544   0.6635694568410969   0.9118418044099484   
C   0.16666666666666666   0.6666666666666666   0.8333333333333333   
H   0.35502511419657856   0.28484230192863175   0.7350250578154348   
H   0.3392441811734606   0.27491621003202477   0.603048393292035   
H   0.380912429242639   0.3977406150640586   0.6337620345205561   
H   0.2511102103713135   0.35925658816384565   0.6745486736143719   
C   0.3333333333333333   0.3333333333333333   0.6666666666666666   
H   0.009127124470473237   0.247907092229541   0.6773360646785518   
H   0.03693552122057683   0.34383588231735507   0.5890764168851295   
H   0.04115137629035941   0.3942494649310985   0.7123894428808444   
H   -0.08415482855663815   0.352984200630496   0.6615099846684313   
C   0.0   0.3333333333333333   0.6666666666666666   
H   0.7191522500418841   0.7095891526542929   0.05383035257699794   
H   0.72298667046806   0.6128727135768604   -0.037802789671419014   
H   0.6276316580857457   0.7004400659633203   -0.06950114192727339   
H   0.6093365931695252   0.6208679233546819   0.04594040604972994   
C   0.6666666666666666   0.6666666666666666   0.0   
H   0.864223763776557   0.761191238687869   -0.03655246382059633   
H   0.8247041625322681   0.8841274362037383   -0.06957211833080498   
H   0.8776658869454819   0.8857639144656468   0.05272989642046195   
H   0.7553271049183082   0.8173874147207915   0.03399322185706899   
C   0.8333333333333333   0.8333333333333333   0.0   
H   0.07720841763396377   0.4663322517513821   0.8133301811195969   
H   0.011220618116059641   0.5169591007069697   0.9174836141199307   
H   -0.07468980178174123   0.4562845934576735   0.8356092649672159   
H   -0.011240894863833407   0.5741868821032614   0.7901507913676752   
C   0.0   0.5   0.8333333333333333   
H   0.39320011960236995   0.4970965289356872   0.22913522581248788   
H   0.26961981359143883   0.5420820506378882   0.20746460215816206   
H   0.2900898629698467   0.43180324534463677   0.13545788505704226   
H   0.3624334368710335   0.5482955964143523   0.10097418258183466   
C   0.3333333333333333   0.5   0.16666666666666666   
H   0.2288804704831562   0.208531108300749   0.6875284756498514   
H   0.12543068927391152   0.22031635144335526   0.628199675303588   
O   0.16666666666666666   0.16666666666666666   0.6666666666666666   
H   0.552461491703531   0.16931451979418902   -0.05743852970573375   
H   0.43406814221785245   0.176245773809842   -0.04024468621365141   
O   0.5   0.16666666666666666   0.0   
H   0.1611656344579635   0.7093063420037966   0.5648845179105462   
H   0.23421062017037725   0.630058644341899   0.5124928371180819   
O   0.16666666666666666   0.6666666666666666   0.5   
H   0.6991483591095469   0.22786842663360946   0.8687972328044277   
H   0.5912749862938963   0.1805150279487536   0.8468507795814921   
O   0.6666666666666666   0.16666666666666666   0.8333333333333333   
H   0.38298206468053025   0.7073040127400968   -0.0440682823856703   
H   0.3585154484353381   0.6855034692340438   0.0711999991624162   
O   0.3333333333333333   0.6666666666666666   0.0   
H   0.8825918393000463   0.34467563882474356   0.5591891512759547   
H   0.7694696209005465   0.3109859331146839   0.538476276723078   
O   0.8333333333333333   0.3333333333333333   0.5   
H   0.03186298979333643   -0.05831239250497852   -0.040531699871533836   
H   0.004958365142674055   0.057923637961535   -0.05175587612159578   
O   0.0   0.0   0.0   
H   -0.025313277894851785   0.38880126951375144   0.28494996893187713   
H   -0.025319362353564225   0.2695357861401908   0.2966290175809766   
O   0.0   0.3333333333333333   0.3333333333333333   
H   0.8072091169921657   0.6118344148521645   0.21534267116798053   
H   0.8181179879268915   0.7309374375969927   0.20785119289782844   
O   0.8333333333333333   0.6666666666666666   0.16666666666666666   
H   0.6198833157544658   0.8779755303940183   0.12334466011431654   
H   0.6877867985454662   0.7796382871422799   0.1144250551231491   
O   0.6666666666666666   0.8333333333333333   0.16666666666666666   
H   0.35557071829114567   0.7266243988780008   0.28896022220719025   
H   0.2606386061438374   0.6559249414883944   0.3076721581509635   
O   0.3333333333333333   0.6666666666666666   0.3333333333333333   
H   0.4591294480295503   -0.065281383571423   0.17790690124306877   
H   0.5281347103742   0.011898374970729838   0.2382576624546624   
O   0.5   0.0   0.16666666666666666   
H   0.13909720545445567   0.33841810890597357   0.5726118020609963   
H   0.10987427867217067   0.3689966467346317   0.4604885247576804   
O   0.16666666666666666   0.3333333333333333   0.5   
H   0.1589782895539998   0.7560321430632311   0.6617862186442088   
H   0.21695531539757398   0.8391122509233728   0.7257941548004271   
O   0.16666666666666666   0.8333333333333333   0.6666666666666666   
H   0.14874417902057757   0.4011935229848445   0.20031459423639605   
H   0.13641773802374618   0.3439781221342292   0.09574350599230826   
O   0.16666666666666666   0.3333333333333333   0.16666666666666666   
H   0.4526669619395322   0.2814916748046777   0.7997114672092526   
H   0.461194060408934   0.3476419394768029   0.8992709309191312   
O   0.5   0.3333333333333333   0.8333333333333333   
H   0.0643860127052503   0.12293234955678325   0.5003934559092706   
H   -0.05080269204410716   0.11723837004520307   0.46783893803256404   
O   0.0   0.16666666666666666   0.5   
H   0.36957289507854985   0.5982693485293031   0.6584871209071534   
H   0.34556499269699825   0.6979475632861699   0.5964506004952251   
O   0.3333333333333333   0.6666666666666666   0.6666666666666666   
H   0.845491926256867   0.8148072312368829   0.7412813843296903   
H   0.7744678926102879   0.8837632490658314   0.6737439133343895   
O   0.8333333333333333   0.8333333333333333   0.6666666666666666   
H   0.035039262348918035   0.3381105588463823   -0.0693385328885909   
H   0.021589735486615226   0.40103784473223403   0.03175510022902052   
O   0.0   0.3333333333333333   0.0   
H   0.8290002935078885   0.34219649636547556   0.08945868107166613   
H   0.8933909410379594   0.3800089786018297   0.18318549920010424   
O   0.8333333333333333   0.3333333333333333   0.16666666666666666   
H   0.13914696537033736   0.5179667162858863   0.4038901691408177   
H   0.1794849351170556   0.5710841511249072   0.30433093023486296   
O   0.16666666666666666   0.5   0.3333333333333333   
H   0.16268278095860145   0.7582379848256656   0.35341370235081043   
H   0.09918226352454869   0.8595068567890355   0.3619551071282423   
O   0.16666666666666666   0.8333333333333333   0.3333333333333333   
H   0.32901091765052237   0.41056840108165493   -0.008629308505215942   
H   0.3938502845715042   0.3276258086357019   0.048616115716537976   
O   0.3333333333333333   0.3333333333333333   0.0   
H   0.6549795586540001   0.26234935132977383   0.3036165074947676   
H   0.6812813096914834   0.3155996613635494   0.40769954219479343   
O   0.6666666666666666   0.3333333333333333   0.3333333333333333   
H   0.05912896957864671   0.1904282742176193   0.8780273474276503   
H   0.029107987676455838   0.1002596143810368   0.8050272846358913   
O   0.0   0.16666666666666666   0.8333333333333333   
H   0.826164802212942   0.7328509261708553   0.45966812813469715   
H   0.844180710712379   0.6946535510972746   0.5718155459254151   
O   0.8333333333333333   0.6666666666666666   0.5   
H   0.6012828311016852   0.5238236853789573   0.13179848640905997   
H   0.6991273720327602   0.4583265154566193   0.10950000482736298   
O   0.6666666666666666   0.5   0.16666666666666666   
H   0.790105951559085   -0.04487771070981541   0.7866879854507144   
H   0.788472610438049   0.0021349418441597053   0.8969050369233394   
O   0.8333333333333333   0.0   0.8333333333333333   
H   0.8685232831512143   0.23550301835917425   0.6757014909694105   
H   0.8482735843407725   0.1336871182183009   0.7355690774857203   
O   0.8333333333333333   0.16666666666666666   0.6666666666666666   
H   0.5223576356557988   0.09504800782182193   0.31261358995052735   
H   0.5255553098166837   0.20791648997240259   0.2724746268886519   
O   0.5   0.16666666666666666   0.3333333333333333   
H   0.7647916083877546   0.4706621931321786   -0.02235461836784721   
H   0.8681470137358929   0.5094601907807221   -0.06897040220211713   
O   0.8333333333333333   0.5   0.0   
H   0.47504360482576785   0.7111295352372652   0.4411898342879203   
H   0.4345373700650458   0.6595942055704159   0.5415093761545785   
O   0.5   0.6666666666666666   0.5   
H   0.5712868656154746   0.5279152859112878   0.014047189609076527   
H   0.47677252798017566   0.5477593193553991   -0.056902863644796575   
O   0.5   0.5   0.0   
H   0.3111826466204582   0.01193444905567261   0.7403234378189961   
H   0.31302390621580517   -0.0745669506764657   0.65740918484533   
O   0.3333333333333333   0.0   0.6666666666666666   
H   0.6384703475157302   0.6302178281306264   0.3960617454638284   
H   0.703720012830097   0.6080235999592906   0.29802831672169183   
O   0.6666666666666666   0.6666666666666666   0.3333333333333333   
H   0.7747677852666744   0.3836661981840035   0.843084396263962   
H   0.8570051254207265   0.35246546085468333   0.761695271602302   
O   0.8333333333333333   0.3333333333333333   0.8333333333333333   
H   0.005944809424455434   0.05435514889175421   0.6112718928828234   
H   0.004970020245772306   0.04403143358331734   0.7306583511893885   
O   0.0   0.0   0.6666666666666666   
H   0.3748803172038104   0.877895860086397   0.4515600033716989   
H   0.2623361584718404   0.8636926074444258   0.4901959411550532   
O   0.3333333333333333   0.8333333333333333   0.5   
H   0.2970959752109408   0.52774788309481   0.7702832517095378   
H   0.4019185301188828   0.47957325721290356   0.8027192370099352   
O   0.3333333333333333   0.5   0.8333333333333333   
H   0.5577810526428458   0.45046201119052637   0.3170317520327914   
H   0.5022186769467676   0.5459070702677422   0.27051596069853195   
O   0.5   0.5   0.3333333333333333   
H   0.1552470751128051   0.31018865137107265   0.906765755044113   
H   0.11992845736422546   0.39550433189165823   0.8303819502401047   
O   0.16666666666666666   0.3333333333333333   0.8333333333333333   
H   0.3124274977045928   -0.060317990928002385   0.37786523133661337   
H   0.33669551811244514   0.056714156807994104   0.386536754875283   
O   0.3333333333333333   0.0   0.3333333333333333   
H   0.47706788610705636   0.2630834975234878   0.14222320836404836   
H   0.48433127193534514   0.3279561700396747   0.242719155175921   
O   0.5   0.3333333333333333   0.16666666666666666   
H   0.641035680497207   0.8714101761919762   0.896195170075511   
H   0.6410724703272287   0.8801705466859595   0.776679856019051   
O   0.6666666666666666   0.8333333333333333   0.8333333333333333   
H   0.5518790018068337   0.05050514448629226   0.5285692751858763   
H   0.47557888317364816   -0.0341916732022968   0.5655205499769503   
O   0.5   0.0   0.5   
H   -0.07035849041518775   0.6884045237693193   0.02521016318435131   
H   0.04477177292395607   0.6924537004775826   0.05821444124254241   
O   0.0   0.6666666666666666   0.0   
H   0.13384409036910183   0.6210606009973048   0.11280416401358313   
H   0.11189866160698288   0.7214139990800464   0.17451517914371448   
O   0.16666666666666666   0.6666666666666666   0.16666666666666666   
H   0.09738323505433422   -0.00803939187156619   0.13211846533786112   
H   0.17216477472210862   -0.06809765573523188   0.2039612242304394   
O   0.16666666666666666   0.0   0.16666666666666666   
H   0.09004338834216517   0.16961158172435714   0.013364304202239798   
H   0.19281503183642976   0.21469799189624633   0.05538644895947107   
O   0.16666666666666666   0.16666666666666666   0.0   
H   0.530174728404322   0.9000911347837206   0.6403743551681106   
H   0.4254849469536717   0.8420406145523105   0.6459279575463389   
O   0.5   0.8333333333333333   0.6666666666666666   
H   0.7970977761444821   0.733591386134554   0.8170094167671687   
H   0.7766728879899792   0.6155141065811802   0.8181210533301734   
O   0.8333333333333333   0.6666666666666666   0.8333333333333333   
H   0.48224058680207804   0.7740309173115342   0.38051628183746955   
H   0.43193708877008063   0.8437595320916379   0.29704093155194833   
O   0.5   0.8333333333333333   0.3333333333333333   
H   0.39986867390735387   0.8622204965026311   0.19489757510813355   
H   0.35878662268403305   0.799899261801903   0.10114799104847527   
O   0.3333333333333333   0.8333333333333333   0.16666666666666666   
H   0.2718388297163816   0.818894863702436   0.7878541012342376   
H   0.3380196169479137   0.7664651979651993   0.8728946168182465   
O   0.3333333333333333   0.8333333333333333   0.8333333333333333   
H   0.7420457810641315   -0.015122430075735114   0.6788200675881964   
H   0.6353340242671501   -0.06954829272172366   0.6821490577112853   
O   0.6666666666666666   0.0   0.6666666666666666   
H   0.013890433469987544   0.45744977040868845   0.23034505980314235   
H   -0.07483226984278839   0.5183801552823029   0.17765325916277616   
O   0.0   0.5   0.16666666666666666   
H   -0.010740123645699621   0.5942216258692667   0.6403081814932127   
H   0.002009097854348319   0.6539269915195659   0.7434264747413292   
O   0.0   0.6666666666666666   0.6666666666666666   
H   0.11453941948036571   0.7913809511370808   -0.03976369778502596   
H   0.1518498390318245   0.8096325136352421   0.07264390337240277   
O   0.16666666666666666   0.8333333333333333   0.0   
H   0.31570341338763114   0.240189771389973   0.5184916988742218   
H   0.30318383330952486   0.16219068826657135   0.4283803295289815   
O   0.3333333333333333   0.16666666666666666   0.5   
H   0.04735084891043296   0.05213427665928447   0.3001924486532955   
H   0.05082429567540642   -0.0403750370143364   0.37628855755450186   
O   0.0   0.0   0.3333333333333333   
H   0.03116255977963457   0.42976454119177465   0.512420914889001   
H   0.0014024856200766864   0.529343009916926   0.5720792947787483   
O   0.0   0.5   0.5   
H   0.6942280887506803   -0.07144436859900072   -0.013945398556441346   
H   0.6285488181649271   0.01396161424527166   -0.06641164721617507   
O   0.6666666666666666   0.0   0.0   
H   0.0502347760069583   0.8900608973444261   0.14886625392990321   
H   -0.06704482721215926   0.8658833348613384   0.14421911719418296   
O   0.0   0.8333333333333333   0.16666666666666666   
H   0.8155617384463307   -0.048058632087505986   0.44140868469004096   
H   0.8264637860186448   0.06899786713381659   0.46463748335629257   
O   0.8333333333333333   0.0   0.5   
H   0.4267628196366821   0.47434863160720786   0.6606064154582474   
H   0.5018702249381266   0.5206747521875678   0.7416830702952364   
O   0.5   0.5   0.6666666666666666   
H   -0.034984416697254724   0.7259662810435624   0.36963829519538915   
H   -0.0448214451714172   0.6600525502800225   0.27004276966171953   
O   0.0   0.6666666666666666   0.3333333333333333   
H   0.3731418873309053   0.3233931257412556   0.3994761729635596   
H   0.38734584933400656   0.36764640305983604   0.289020070150374   
O   0.3333333333333333   0.3333333333333333   0.3333333333333333   
H   0.358583819891129   0.179562519009659   0.23915469225464467   
H   0.3601378931963534   0.09458234919301205   0.15467622557352181   
O   0.3333333333333333   0.16666666666666666   0.16666666666666666   
H   -0.04451578216203913   0.7804440364613429   0.8691030320682874   
H   0.007715170888816432   0.8862822138034515   0.8898602837890099   
O   0.0   0.8333333333333333   0.8333333333333333   
%ENDBLOCK positions_frac

