%BLOCK lattice_cart
12.77768665746851   0   0
0   12.77768665746851   0
0   0   12.77768665746851
%ENDBLOCK lattice_cart

%BLOCK positions_frac
H   0.581966681497369   0.6462930836295759   0.4880285430248061   
H   0.5020310868663168   0.7504207729486357   0.48393575676792167   
H   0.4593609480279624   0.665947538587654   0.5749992390174012   
H   0.4520660791537486   0.6275606137618064   0.4412633725680743   
C   0.5   0.6666666666666666   0.5   
H   0.5802140823766738   0.314563295517593   0.14452344620456714   
H   0.4649357962085064   0.3458284738307182   0.08991180610403846   
H   0.47521494808363285   0.4042457514730486   0.20709024516548888   
H   0.4640417221961426   0.26540913612571854   0.20368343630761385   
C   0.5   0.3333333333333333   0.16666666666666666   
H   0.04024298743744977   -0.07214501978354183   0.6453938289125987   
H   -0.05926150356243819   -0.030137654786304157   0.7201150670456299   
H   -0.04833413359200225   0.04689225572536042   0.6143038609123226   
H   0.05351674839955332   0.050954204100866055   0.7092878148064746   
C   0.0   0.0   0.6666666666666666   
H   0.3466117208506748   0.7501483581828702   0.6552024985720332   
H   0.3083983423073813   0.6656926950728222   0.7482401497689551   
H   0.39400493605167514   0.606715223427765   0.6679768654033938   
H   0.26898170722924253   0.6409722927831414   0.6169112356860973   
C   0.3333333333333333   0.6666666666666666   0.6666666666666666   
H   0.7619594059428618   -0.04318020383230667   0.517837265189189   
H   0.8068937902315995   0.08011847068070728   0.5126062190971554   
H   0.868808971505999   0.007043494119706701   0.422741965916825   
H   0.8934699193926768   -0.01948580426396481   0.5572785299469434   
C   0.8333333333333333   0.0   0.5   
H   0.450566155032211   0.11762854006204229   0.6173869278851074   
H   0.5142858605199002   0.23242809635967895   0.6142425872993927   
H   0.5796913669041249   0.14806465482491538   0.6907537324896509   
H   0.4553100512778447   0.19332333744492153   0.7342622725134976   
C   0.5   0.16666666666666666   0.6666666666666666   
H   0.20713829769309475   0.7201020048898176   0.21942694769896784   
H   0.22216069013452888   0.6019297195943555   0.1641217527831687   
H   0.15384760475071535   0.679769208616177   0.08335441912991126   
H   0.0940069437724965   0.6404797485757038   0.20288469440712875   
C   0.16666666666666666   0.6666666666666666   0.16666666666666666   
H   0.33341577371905995   0.8805788625908624   0.7623066572719543   
H   0.2943362189000883   0.8863976470357683   0.8875582281763778   
H   0.40240922561718323   0.8122918204596953   0.8787504158546464   
H   0.2849056123363768   0.7641219781916218   0.8214388092966982   
C   0.3333333333333333   0.8333333333333333   0.8333333333333333   
H   0.7056801408471359   0.3473821692432556   0.5921179270025031   
H   0.5869299612216141   0.3185125904078773   0.6402216496034132   
H   0.6526635293705947   0.3920576801395323   0.7269352221630605   
H   0.6983612241775122   0.2627202752791049   0.7025301104498723   
C   0.6666666666666666   0.3333333333333333   0.6666666666666666   
H   0.11782449615061992   0.7213909999444846   0.8768835947579101   
H   0.1440377228461603   0.6855511329271603   0.7532818287928568   
H   0.1574341581926665   0.581864655170258   0.8327719270546237   
H   0.24885052087462925   0.6862857369132943   0.8450739352664333   
C   0.16666666666666666   0.6666666666666666   0.8333333333333333   
H   0.09065058806065628   0.31461368359070374   0.2005497900535004   
H   0.1465694784164705   0.4014839708873494   0.11945936671224658   
H   0.2081318439991827   0.2859314969795652   0.10912850087522985   
H   0.22053505154001202   0.3564932797554949   0.22862430974989745   
C   0.16666666666666666   0.3333333333333333   0.16666666666666666   
H   0.7842032809101747   0.4304484560994948   0.32825827338067654   
H   0.8939001179457274   0.4726877913742392   0.3868370098917535   
H   0.8112531508868128   0.5734662666475363   0.3706443069412512   
H   0.8678938419387117   0.516080629871705   0.2570187205030498   
C   0.8333333333333333   0.5   0.3333333333333333   
H   0.7010590409289605   0.5238728353669402   0.7590084527904454   
H   0.7197557251438137   0.5380020605335227   0.8882362550113806   
H   0.6661842980835733   0.4205069001725434   0.8642776372347194   
H   0.58878289280393   0.5339704242856079   0.8408873777019588   
C   0.6666666666666666   0.5   0.8333333333333333   
H   0.033404482107304026   0.6037134921137538   0.7135492213370614   
H   0.03958294434263174   0.6536433084895258   0.5922320093991861   
H   0.01474915498468643   0.7499123032405577   0.6780491954812412   
H   -0.08375345784876431   0.653642175493243   0.6570408435009347   
C   0.0   0.6666666666666666   0.6666666666666666   
H   0.6351364904681298   0.11929173142990528   0.5635483992227276   
H   0.6487071990881171   0.24509289117999652   0.5283499625475782   
H   0.6348492049156063   0.17077058051413221   0.4209573370740733   
H   0.7512712178009258   0.15646146618425238   0.4961452167306667   
C   0.6666666666666666   0.16666666666666666   0.5   
H   0.3466092440246189   0.512594684168285   0.24998569012222233   
H   0.2746525379780784   0.5598467815402561   0.15079648899542322   
H   0.2957137174227063   0.4315181428749756   0.13243312628571993   
H   0.40466641497386485   0.5178924396407374   0.12344181720553943   
C   0.3333333333333333   0.5   0.16666666666666666   
H   0.765206855805831   0.7820055460219398   0.0010848285488362674   
H   0.8927207740996851   0.7801231351420849   -0.030310760980885944   
H   0.873232576696546   0.8639367653597149   0.0689087503211243   
H   0.8205078987164234   0.8965003746068988   -0.055878159125013344   
C   0.8333333333333333   0.8333333333333333   0.0   
H   0.4107671382360306   0.01721749926434053   0.3647100623047019   
H   0.3481340389947821   0.007633956604720999   0.24966973693651523   
H   0.2644547776095074   0.04961146732434174   0.34178214478198454   
H   0.3126291549099072   -0.08077271768451696   0.35133446155457365   
C   0.3333333333333333   0.0   0.3333333333333333   
H   0.6850873992889134   0.8661258848491035   0.576565401574827   
H   0.6879592941772051   0.7516439623092092   0.512264021320502   
H   0.7087880044526619   0.8499552595690527   0.42770587842084484   
H   0.5827138002681482   0.839085890859276   0.48600857945194587   
C   0.6666666666666666   0.8333333333333333   0.5   
H   0.3348127055289852   0.7436336421443233   0.37008699556307334   
H   0.25071977547976537   0.6604545714872919   0.31300243380018783   
H   0.3453096637043553   0.5924396486835273   0.37363039098949613   
H   0.38016067958983   0.6682470972399016   0.26204772871818943   
C   0.3333333333333333   0.6666666666666666   0.3333333333333333   
H   0.5660259474004558   0.6552025463105474   0.11388330036721636   
H   0.49560447847838035   0.751844525210977   0.1681987723835504   
H   0.4999386412543853   0.6493403444786531   0.2501934907300223   
H   0.42921688888681436   0.6351377717586804   0.13099292968007034   
C   0.5   0.6666666666666666   0.16666666666666666   
H   0.05041593575724273   0.40209658269111676   -0.0026047078627248555   
H   0.016064525212605606   0.3049434943434423   0.07882184732287681   
H   0.011514555954818175   0.26189357420608533   -0.0451742333700687   
H   -0.08159238619551903   0.35762388801530776   -0.005439394427007437   
C   0.0   0.3333333333333333   0.0   
H   0.8125447578151764   0.27303089236552336   0.7766907143541673   
H   0.8181045441411468   0.40378525696868844   0.787709370557317   
H   0.9121898610710437   0.34952626952053034   0.8615534041050082   
H   0.7795402529415061   0.3300483565245176   0.8994578293457283   
C   0.8333333333333333   0.3333333333333333   0.8333333333333333   
H   0.9021594670767195   -0.010773849627373336   0.11743432951197184   
H   0.8061121030857455   -0.0805464408943992   0.17361008272953904   
H   0.7612772462744705   0.03904116901244515   0.14298876592617552   
H   0.8573692626455673   0.028644034923166032   0.2433395361120383   
C   0.8333333333333333   0.0   0.16666666666666666   
H   0.22522642306784546   0.1810477187340228   0.6063269963390964   
H   0.10082461658142151   0.21120628793572552   0.6357153804034086   
H   0.1697099255217988   0.19642523113446633   0.7465547255986856   
H   0.14685016098361492   0.08370478721834516   0.6679189463818378   
C   0.16666666666666666   0.16666666666666666   0.6666666666666666   
H   0.4243693318642782   0.3006990879902793   0.5221798018882712   
H   0.493652825009519   0.411749656047619   0.5329777083069531   
H   0.5244715871487339   0.35162414798910874   0.42035376301909005   
H   0.5622106097026144   0.29064971923353017   0.5398106100352323   
C   0.5   0.3333333333333333   0.5   
H   0.06401890092832602   0.6131198001548791   0.3509755824605636   
H   -0.06404915928544098   0.6114933814846395   0.3219075142983496   
H   -0.006917531855762454   0.7137788850517022   0.2625553552933066   
H   -0.016105323931588637   0.7152580837803596   0.40157135988386433   
C   0.0   0.6666666666666666   0.3333333333333333   
H   0.43686790277342785   0.8872161154194191   0.019695675616928927   
H   0.45915345706502164   0.7794935466611758   -0.05205547852941911   
H   0.5366759752358373   0.7783718425560342   0.053954081547241566   
H   0.5603343961453082   0.8749102333181261   -0.043681318352412776   
C   0.5   0.8333333333333333   0.0   
H   0.026898582922307072   0.21981821957878964   0.10560674361258114   
H   0.030842974809197725   0.20546392201477226   0.23609590709130593   
H   0.02843431521650756   0.08719667803034137   0.179033807317597   
H   -0.08526315595600226   0.16713479795119318   0.16929547496933153   
C   0.0   0.16666666666666666   0.16666666666666666   
H   0.18782511278712666   0.08416284909014615   0.3286030282018329   
H   0.08541279190722507   0.16071263289873172   0.3586175747108505   
H   0.1586896643411879   0.2195123904988741   0.2668454964748624   
H   0.21278260668781449   0.2044368027588667   0.39435523464025635   
C   0.16666666666666666   0.16666666666666666   0.3333333333333333   
H   0.06661380193499136   0.3856039527221847   0.3436928354468937   
H   -0.06322880163850428   0.3898982309363882   0.3244189322831295   
H   -0.032690807789792546   0.282448287689271   0.3934911155349888   
H   0.00930906387757197   0.2893687146707448   0.26082547735106243   
C   0.0   0.3333333333333333   0.3333333333333333   
H   0.7881080412113087   0.7146213435870605   0.7791857806877384   
H   0.7957715699620873   0.5908536288769806   0.8224506508923434   
H   0.8315423462111288   0.6731216261603834   0.9183748608750693   
H   0.9142941847433057   0.6624039493283532   0.8067983503215564   
C   0.8333333333333333   0.6666666666666666   0.8333333333333333   
H   0.726728571286771   -0.040263414003580814   0.37859215180831135   
H   0.6493206747385306   -0.058934048802801085   0.2741486224756517   
H   0.6794927980493255   0.06849803094827556   0.2841353084386982   
H   0.5978178921339076   0.012477220464658538   0.3821298573732985   
C   0.6666666666666666   0.0   0.3333333333333333   
H   0.6374919677381541   0.5865068911996144   0.667094314970413   
H   0.6308957246840977   0.696877307487987   0.7379736960145097   
H   0.6441614136730738   0.7271329781435327   0.6108609831958383   
H   0.7515222079451566   0.6661325942512661   0.6753952074701961   
C   0.6666666666666666   0.6666666666666666   0.6666666666666666   
H   0.8575220323945765   0.9151310865461527   0.3323484726180133   
H   0.8374863726232962   0.8166367001197364   0.416885175009959   
H   0.878440111142537   0.7680961699025679   0.3019259035316442   
H   0.7524004727032035   0.8272537326360427   0.30706841244720107   
C   0.8333333333333333   0.8333333333333333   0.3333333333333333   
H   0.42349346835673135   0.13895556248300703   0.3589415520220506   
H   0.546888096246126   0.09630887348977564   0.3446568890143522   
H   0.54787043296251   0.22428905779246772   0.37413795601871447   
H   0.49700490266493746   0.18582574440927663   0.2502617095645914   
C   0.5   0.16666666666666666   0.3333333333333333   
H   0.5021053176540138   0.9109717789613054   0.7019480348603377   
H   0.5195948607846896   0.784825586113011   0.7340460064824234   
H   0.5555875201117636   0.803681145985176   0.609153964270906   
H   0.42051970991661897   0.8158124060894884   0.6411160083513361   
C   0.5   0.8333333333333333   0.6666666666666666   
H   0.37384571126014066   0.2642485518969632   0.3627097822707694   
H   0.37378021954163493   0.3450094158015399   0.25913997758082935   
H   0.33865368416350294   0.41165203887022295   0.36672210051092097   
H   0.25153854145512483   0.3142096348050209   0.31847292554054185   
C   0.3333333333333333   0.3333333333333333   0.3333333333333333   
H   0.6310139184975383   0.36088095030294315   0.062067038793937775   
H   0.702110327015274   0.3964976096037885   -0.025225544626151775   
O   0.6666666666666666   0.3333333333333333   0.0   
H   0.7151157076153989   0.8926873447665332   0.8298550125747733   
H   0.6783945046069084   0.8096263043329269   0.9053245935708449   
O   0.6666666666666666   0.8333333333333333   0.8333333333333333   
H   0.035182799438711644   0.12470476870580127   0.4463001238312311   
H   0.021711625007451333   0.23726555990073428   0.47934307450213526   
O   0.0   0.16666666666666666   0.5   
H   0.1616736636370399   0.5450917680069255   0.27149394995898557   
H   0.20854853580216465   0.44214721709191995   0.30538209892639906   
O   0.16666666666666666   0.5   0.3333333333333333   
H   -0.021584707070384686   0.7391643477763558   0.012668607333377392   
H   0.019636811437531633   0.6450927207869117   0.07093142782369487   
O   0.0   0.6666666666666666   0.0   
H   -0.019178241139908132   0.07413774949730198   0.00425395388064321   
H   0.06236231702229649   -0.0011219001875632446   0.044631711965188385   
O   0.0   0.0   0.0   
H   0.2139235086611202   0.7729451598402242   0.6651283740283113   
H   0.11023534888477424   0.8060850413752036   0.7108859375350043   
O   0.16666666666666666   0.8333333333333333   0.6666666666666666   
H   0.5273852441928684   0.4550920291295135   0.7224844909717782   
H   0.5193387817209335   0.4590849125465266   0.6047451510393137   
O   0.5   0.5   0.6666666666666666   
H   0.1921694433490642   -0.070576413258027   0.15082730965687116   
H   0.20584024348153127   0.041152269002458816   0.11514746060870247   
O   0.16666666666666666   0.0   0.16666666666666666   
H   0.819068154424512   -0.06428482802525934   0.7940106615799292   
H   0.8262425085102074   -0.025511465850876353   0.905313832573274   
O   0.8333333333333333   0.0   0.8333333333333333   
H   0.702206826248788   0.052366494786940394   -0.04332382990884454   
H   0.6722382446680533   0.03264795170005874   0.0691764101824379   
O   0.6666666666666666   0.0   0.0   
H   0.2849399221829293   0.6587497440978167   0.05897208705506858   
H   0.2907120566148191   0.7088913561528586   -0.04777875391889482   
O   0.3333333333333333   0.6666666666666666   0.0   
H   0.3257645861082777   0.36574818084887023   -0.06909630006991332   
H   0.3112591904159757   0.26153620211219886   -0.015498745763547294   
O   0.3333333333333333   0.3333333333333333   0.0   
H   0.21663484665735552   0.349744060197191   0.7775106140374966   
H   0.21459117194825186   0.31608371699513405   0.8906744136079848   
O   0.16666666666666666   0.3333333333333333   0.8333333333333333   
H   0.49217519770611334   0.10167014146411554   -0.039956615697773104   
H   0.5410415997069066   0.20876312507711267   -0.04925223081403969   
O   0.5   0.16666666666666666   0.0   
H   0.519662628993482   0.5100344013622252   0.07345065532539691   
H   0.4264550364950492   0.4796268157486885   0.007640593162927475   
O   0.5   0.5   0.0   
H   0.2958509740139013   0.3656246839577936   0.608060793479238   
H   0.2909260326300936   0.2703860904003103   0.6776926546749946   
O   0.3333333333333333   0.3333333333333333   0.6666666666666666   
H   0.8792345853246526   0.1356851646754647   0.6136051122476491   
H   0.8787373099495953   0.2220362710391713   0.6941437985480338   
O   0.8333333333333333   0.16666666666666666   0.6666666666666666   
H   0.024323127669083656   0.48235308504083946   0.4294359949394777   
H   0.05193380901004494   0.5527157677161243   0.5201552542323732   
O   0.0   0.5   0.5   
H   0.13302437676242135   0.7899818182006372   0.3869164409612243   
H   0.15342015481745952   0.9034602612921203   0.3614233823944456   
O   0.16666666666666666   0.8333333333333333   0.3333333333333333   
H   0.4428086723424576   0.706768155043211   0.8650087122279464   
H   0.4618656423409372   0.6051409083847615   0.8079826175420373   
O   0.5   0.6666666666666666   0.8333333333333333   
H   0.6410295751526498   0.261914031465834   0.3444836614372384   
H   0.6385533942800803   0.3683817433011127   0.3954908737593498   
O   0.6666666666666666   0.3333333333333333   0.3333333333333333   
H   0.6902538816066678   0.6665624586739938   -0.07297903390311666   
H   0.6822260709902694   0.7390967434768994   0.01985184796743756   
O   0.6666666666666666   0.6666666666666666   0.0   
H   0.2882570780906766   0.0033045334436841074   0.7286305128140955   
H   0.39797788967030995   -0.02735412764385949   0.6975720059173965   
O   0.3333333333333333   0.0   0.6666666666666666   
H   0.5692816179348248   -0.010574162906064678   0.5311536747837677   
H   0.4717543662130754   -0.07121067559084977   0.5036784251023366   
O   0.5   0.0   0.5   
H   0.8600197106713379   0.0949676316059819   -0.005421493641436604   
H   0.8089243557589328   0.17820268172598183   -0.07178738836096124   
O   0.8333333333333333   0.16666666666666666   0.0   
H   0.008157542507021205   0.054854237471432636   0.38631233001161724   
H   -0.0625661368705197   0.02490187399144317   0.2966225427374134   
O   0.0   0.0   0.3333333333333333   
H   0.1459773959114101   -0.052113191594995514   0.8856637861764224   
H   0.1792853017267331   -0.045098711468131325   0.7725946864065296   
O   0.16666666666666666   0.0   0.8333333333333333   
H   0.8599992560170093   0.674073874674993   0.5715287969583818   
H   0.8048741683398843   0.7368876161219352   0.4881087787490062   
O   0.8333333333333333   0.6666666666666666   0.5   
H   0.8004828376802106   0.7282617262930858   0.19843458322293203   
H   0.8143535953004329   0.6768253576966308   0.09305364133742207   
O   0.8333333333333333   0.6666666666666666   0.16666666666666666   
H   0.6886245550041441   0.5714852583799188   0.1836965207904967   
H   0.722037689448618   0.4595653128185016   0.20103806271016186   
O   0.6666666666666666   0.5   0.16666666666666666   
H   0.364815052767954   0.23155708852310342   0.8072480606666098   
H   0.3736737729316543   0.15618981134298168   0.8977164941201772   
O   0.3333333333333333   0.16666666666666666   0.8333333333333333   
H   0.07598519913934058   0.829237363885195   0.5095801619714113   
H   -0.020068981752439877   0.7607296546441892   0.514430827058335   
O   0.0   0.8333333333333333   0.5   
H   0.30820973010831515   -0.06886616002112399   -0.02255135300376906   
H   0.3085082587595041   0.0011138896011661226   0.07255881669186755   
O   0.3333333333333333   0.0   0.0   
H   0.18523713852819898   0.8858641725471256   0.052706313319170285   
H   0.12169214753575766   0.8748588219626289   -0.04620858557027626   
O   0.16666666666666666   0.8333333333333333   0.0   
H   0.3532460163015461   0.4533870724531397   0.5575589002664435   
H   0.35948720984477517   0.46025837890581967   0.43984282874341035   
O   0.3333333333333333   0.5   0.5   
H   0.3493126143716167   0.76785203564308   0.13007200602247163   
H   0.34405948821091437   0.8841336679987636   0.11021684331188356   
O   0.3333333333333333   0.8333333333333333   0.16666666666666666   
H   0.7647749038904829   0.803273152491426   0.683353015501728   
H   0.8123500837131934   0.8947094989989178   0.6257401901394427   
O   0.8333333333333333   0.8333333333333333   0.6666666666666666   
H   0.487705523639969   0.8613104168234581   0.26298821546590045   
H   0.43309824164477967   0.8497632401101801   0.36704564339431295   
O   0.5   0.8333333333333333   0.3333333333333333   
H   0.4539761064316097   -0.05422078301897842   0.13795752409886866   
H   0.4652260988909996   0.06328853452918207   0.14082785562254554   
O   0.5   0.0   0.16666666666666666   
H   0.1724880584187911   0.4091914704227499   0.4903066315062625   
H   0.10076221131877633   0.31934760593833655   0.4633488178649777   
O   0.16666666666666666   0.3333333333333333   0.5   
H   0.8947922597094143   0.37532586179212885   0.4815139274127656   
H   0.80652851689947   0.3730010533904528   0.5599189515827898   
O   0.8333333333333333   0.3333333333333333   0.5   
H   0.07229976568332008   0.15539912241537074   0.8103530529598063   
H   -0.034113519538571536   0.18132190799185935   0.7662229865620963   
O   0.0   0.16666666666666666   0.8333333333333333   
H   0.23518831655521555   0.03161324409839077   0.5137001186670221   
H   0.13652408663069135   0.00031375451902160273   0.5705239915506802   
O   0.16666666666666666   0.0   0.5   
H   0.8255716233820408   0.27860340861538935   0.21983336824165617   
H   0.7988643133000229   0.3921922566755076   0.20173546702121414   
O   0.8333333333333333   0.3333333333333333   0.16666666666666666   
H   0.001369363537319481   0.9055709958539382   0.19239897931877079   
H   -0.019372483899213023   0.7958138792600571   0.23069247701672677   
O   0.0   0.8333333333333333   0.16666666666666666   
H   0.7605075710774025   0.477223219297152   0.6589249891985183   
H   0.8260499238976308   0.5753333372803123   0.65425106363796   
O   0.8333333333333333   0.5   0.6666666666666666   
H   0.887685748707292   0.5451435836028571   -0.029835863652193886   
H   0.8477675568732128   0.4342270507617673   -0.03671347568222685   
O   0.8333333333333333   0.5   0.0   
H   0.6885911417456225   0.5728794669150438   0.5094977708992732   
H   0.7126100897935981   0.46468428249170135   0.5502425011879145   
O   0.6666666666666666   0.5   0.5   
H   -0.01456271836810064   0.7877823888544083   0.7733721321431213   
H   0.03766197816948027   0.8905716540612614   0.7988709335623911   
O   0.0   0.8333333333333333   0.8333333333333333   
H   -0.032471921186713326   0.2696471902250399   0.6388825620779336   
H   -0.015346341955649868   0.3256509232145783   0.7414181035806907   
O   0.0   0.3333333333333333   0.6666666666666666   
H   0.29595313670859463   0.1181271499995452   0.21280713891589614   
H   0.3187017147472038   0.23343852484316366   0.20144800721834183   
O   0.3333333333333333   0.16666666666666666   0.16666666666666666   
H   0.47192723610987763   0.0699605645821688   0.8474664960465208   
H   0.4972827500252879   -0.00117841903693618   0.7566943430052234   
O   0.5   0.0   0.8333333333333333   
H   0.5237841317310035   0.5641907596840666   0.36791900097686   
H   0.4343086576390063   0.4871897911920632   0.3707880132341358   
O   0.5   0.5   0.3333333333333333   
H   0.9068296714238148   0.18473333715117604   0.34575068660436487   
H   0.8298740619322023   0.17292911397772012   0.2569715486998309   
O   0.8333333333333333   0.16666666666666666   0.3333333333333333   
H   0.6194943863336089   0.15072426128521219   0.1083320917029576   
H   0.6197619782059576   0.15552064703661142   0.22631583601691035   
O   0.6666666666666666   0.16666666666666666   0.16666666666666666   
H   0.7031429874174914   0.2341329089220607   0.8336352236830347   
H   0.7045483049426329   0.12979087968064046   0.888898293272614   
O   0.6666666666666666   0.16666666666666666   0.8333333333333333   
%ENDBLOCK positions_frac

