%BLOCK lattice_cart
13.292787522264643   0   0
0   13.292787522264643   0
0   0   13.292787522264643
%ENDBLOCK lattice_cart

%BLOCK positions_frac
H   0.060246579961613186   0.6579263963224491   0.38826830817557045   
H   -0.03364500701451465   0.5919242381219554   0.3356736456864782   
H   0.010400799755736293   0.6761146071392651   0.2525468618857846   
H   -0.054112584197645225   0.7219088695789774   0.3606100896017409   
C   0.0   0.6666666666666666   0.3333333333333333   
H   -0.004719278245698541   0.11187243752693836   0.43917882729262026   
H   0.07124120861945217   0.14508219100801284   0.534390329871331   
H   -0.04868926324340019   0.1687247038495976   0.5659470568823722   
H   0.006566137008905703   0.24207229868849656   0.4684600144602611   
C   0.0   0.16666666666666666   0.5   
H   -0.007043000781548932   0.7568476230487382   0.8046239891065774   
H   -0.07449682429796332   0.8442858912076266   0.8658011455356809   
H   0.006603824073910444   0.9008991518486399   0.7873426401483445   
H   0.056345980184242965   0.8351389168229568   0.8928796562174307   
C   0.0   0.8333333333333333   0.8333333333333333   
H   0.15850463272138707   0.17119868968386415   0.25186716763906497   
H   0.0880015061938845   0.16455413104735953   0.35638162838365917   
H   0.1950349767248565   0.2265612940551136   0.3816217043777141   
H   0.20295283641260406   0.09589903678975964   0.3533120878103371   
C   0.16666666666666666   0.16666666666666666   0.3333333333333333   
H   0.6712049108538397   0.8968744138859507   0.2182983391708734   
H   0.5897431912097371   0.8083116296515244   0.18010494974767077   
H   0.7072886168146522   0.7625654074437949   0.1747692597791002   
H   0.6736236542760623   0.8602087342514625   0.08950963631575945   
C   0.6666666666666666   0.8333333333333333   0.16666666666666666   
H   0.36618810700553855   0.7328352271228875   0.29774991531625844   
H   0.25592514095865276   0.6720240744975265   0.306816091427423   
H   0.32117329095672154   0.6571640139570387   0.41386734567940664   
H   0.3681285739375925   0.599013923222992   0.3027344490478837   
C   0.3333333333333333   0.6666666666666666   0.3333333333333333   
H   0.30276378875841176   -0.0755570302582208   -0.008973979424897121   
H   0.32463435560622794   0.029048062599045094   -0.07618682320075806   
H   0.41206027566927106   0.01799629173054026   0.014216054940154946   
H   0.28577423805970814   0.04286270125017116   0.05123295308657412   
C   0.3333333333333333   0.0   0.0   
H   0.8070207112347365   0.70487990382193   0.432388694672486   
H   0.8603461578033597   0.5961460493134236   0.4680462204747652   
H   0.7854567459967775   0.638626412152872   0.5603777334411044   
H   0.8963957820321248   0.7081140392950258   0.5320801659907879   
C   0.8333333333333333   0.6666666666666666   0.5   
H   0.04294049722025187   0.4320965661843243   0.8169281037343311   
H   0.03091297476881556   0.5513954060866638   0.7774155865277995   
H   0.007068701747678634   0.5454085275550467   0.9012449911290551   
H   -0.07933709496613933   0.486729028854778   0.8174147633323954   
C   0.0   0.5   0.8333333333333333   
H   0.2972431800685961   0.4632461555839069   0.10286580506085688   
H   0.31173029352252285   0.44945974935878463   0.22751800945985362   
H   0.3113623637829742   0.572317688184832   0.19846796626742017   
H   0.4147328090389239   0.49795334632666105   0.1569800394272887   
C   0.3333333333333333   0.5   0.16666666666666666   
H   0.38662100203540234   0.7794139731441437   0.5312573374548323   
H   0.3195734775685763   0.8001076769100657   0.42630728456452194   
H   0.35085949942073014   0.9105804534387755   0.47879598808313256   
H   0.26412525046723145   0.832046531117342   0.5439599771352759   
C   0.3333333333333333   0.8333333333333333   0.5   
H   0.6073807613718031   0.522146225779261   0.5521403903013848   
H   0.626262262259328   0.5034130880774041   0.4287277815839691   
H   0.7000169718121579   0.42525710988419557   0.4949848521938348   
H   0.7260850278612918   0.55650742490964   0.5005132900785447   
C   0.6666666666666666   0.5   0.5   
H   0.2394714194422028   0.5258180476722071   0.027509826814558304   
H   0.11650371771675418   0.5351122333984852   0.054540845263866766   
H   0.13977622668998008   0.4225689336893051   0.0022865676301544883   
H   0.15271350573154985   0.5316368669318259   -0.0743526202250799   
C   0.16666666666666666   0.5   0.0   
H   0.19270657604944955   0.5710056237056305   0.6349804124672639   
H   0.1929983752473114   0.5073076924941009   0.7439785864288478   
H   0.19603953541848967   0.42586342275358624   0.6475643977136601   
H   0.08469605353769821   0.49803725378615815   0.665739092281876   
C   0.16666666666666666   0.5   0.6666666666666666   
H   0.8266500945886198   0.41378232299571827   0.8477273795282341   
H   0.9007345898254813   0.3157165211411691   0.8765839140825435   
H   0.8523297947340304   0.29942734345588423   0.7611293688413441   
H   0.7689725233198484   0.29427321687662056   0.8658277577854517   
C   0.8333333333333333   0.3333333333333333   0.8333333333333333   
H   0.13927348178083215   0.4050930167178167   0.4712936340501368   
H   0.1289173094120011   0.281234090611225   0.44916153898552047   
H   0.14704934844344902   0.3006176691129646   0.5725860890531195   
H   0.24776167690940346   0.3285472532450742   0.48883814823618105   
C   0.16666666666666666   0.3333333333333333   0.5   
H   0.2571927855766068   0.6377904454747277   0.00962678662161762   
H   0.374922595591871   0.6168289811457505   0.050104216892264804   
H   0.35999549522169105   0.7398044020492698   0.025766159399910785   
H   0.35771694932917547   0.6543257463428115   -0.0773112872755709   
C   0.3333333333333333   0.6666666666666666   0.0   
H   0.05960606741134149   0.5137414393939631   0.44539062576063576   
H   -0.052392474946853826   0.5600627735625804   0.48072862265971195   
H   0.006403138011520155   0.5108517608466635   0.5810255101422418   
H   -0.03484828075982388   0.42735061844642747   0.4847829414259455   
C   0.0   0.5   0.5   
H   0.8598039272541769   0.5948774593809092   0.8628208147184672   
H   0.8797281830637055   0.67348832289299   0.7660661265494603   
H   0.8460601698407566   0.7398586569815968   0.8680443455618864   
H   0.754530627651907   0.65997690809693   0.8116705797862089   
C   0.8333333333333333   0.6666666666666666   0.8333333333333333   
H   0.7345732359929786   0.1251117799625272   0.51964137003916   
H   0.654518010246914   0.14049860516785415   0.42324365245618145   
H   0.6620949615680733   0.24783288279253454   0.4892743738654249   
H   0.6046495367861429   0.14180201277537915   0.5475343956722606   
C   0.6666666666666666   0.16666666666666666   0.5   
H   0.012814344034044063   0.666097084285815   0.7476565570639678   
H   -0.08030832158875043   0.6503349632349429   0.6638840185943526   
H   0.028652212959205024   0.611047456747537   0.613662436984589   
H   0.013642695213679187   0.7420114065842365   0.637324866828574   
C   0.0   0.6666666666666666   0.6666666666666666   
H   0.5612573148779267   0.475073705558146   0.38181132218418   
H   0.48935375392012376   0.4333176420720546   0.2868143611901917   
H   0.505682784241739   0.5580048378943372   0.27565284332334994   
H   0.43280776455351344   0.5128466341312348   0.37854463358980006   
C   0.5   0.5   0.3333333333333333   
H   0.1360259783439163   0.3838496863789977   0.7764726221370059   
H   0.15648842091501255   0.2608664615737916   0.7963353604904415   
H   0.13279680433714064   0.3179627365476648   0.9064118620809049   
H   0.24674333040281152   0.34819532171742834   0.8428592668748655   
C   0.16666666666666666   0.3333333333333333   0.8333333333333333   
H   0.8242734992257629   0.2831408564682849   0.5642069221795685   
H   0.7986942652298546   0.2885320065312767   0.44069679383560967   
H   0.9047076489092427   0.3527731379840557   0.4646206945391727   
H   0.7893239190687581   0.401457812984994   0.5120880483105318   
C   0.8333333333333333   0.3333333333333333   0.5   
H   0.47438836200180146   0.13822461287776502   0.0725188786385776   
H   0.4701792657881381   0.24301839051847804   0.0022432698456740234   
H   0.47254556505304657   0.14178475285375527   -0.07315079323171171   
H   0.5819510910139545   0.16930630107363193   -0.000972211653085345   
C   0.5   0.16666666666666666   0.0   
H   0.373502772919034   0.7626700287136329   0.8441503424981833   
H   0.3670603413651854   0.8594041458988197   0.7632855221964181   
H   0.3415704333563507   0.9002632027125553   0.8799856317951386   
H   0.253686257630394   0.817979833139531   0.8213122041248331   
C   0.3333333333333333   0.8333333333333333   0.8333333333333333   
H   0.8055518533347534   0.3913962249492749   0.1158652476907934   
H   0.8042070848862084   0.2659628165117835   0.1301048108840083   
H   0.8075681241742464   0.3212220692568596   0.24356507668362803   
H   0.9153034794883217   0.3322393618992376   0.1647712644640987   
C   0.8333333333333333   0.3333333333333333   0.16666666666666666   
H   0.6944406393490118   0.6122670877201755   0.7213766880116005   
H   0.6989642139648232   0.6365562026809851   0.597571640935659   
H   0.6901640784085475   0.7450578095413384   0.6615096768553903   
H   0.5848740700230297   0.6622988441696747   0.6628212220104057   
C   0.6666666666666666   0.6666666666666666   0.6666666666666666   
H   0.03250617260883759   0.1276725448039882   0.7689384469978382   
H   0.004448433383118303   0.24446400130285006   0.8078053027077652   
H   0.034567598589387724   0.1729955135913171   0.9074205860023692   
H   -0.07865934032876225   0.14502265679257378   0.8415879804664584   
C   0.0   0.16666666666666666   0.8333333333333333   
H   0.518656735161394   0.6599650618011034   0.24623367559010018   
H   0.5202962651892543   0.5918434443627261   0.1399563464308321   
H   0.5397645529491402   0.713485554252564   0.11234663097400154   
H   0.41917578978249165   0.6777122400434537   0.15833981040680994   
C   0.5   0.6666666666666666   0.16666666666666666   
H   -0.06135573309511228   0.2816642487437479   0.6496468576867193   
H   -0.040020988027296596   0.39098788738387913   0.7090714670815956   
H   0.039697565000778035   0.3796166505086654   0.6118410151161843   
H   0.05432732218220946   0.29615601440023864   0.7155571893181545   
C   0.0   0.3333333333333333   0.6666666666666666   
H   0.7308138360855191   -0.05105249986097116   0.0016361837222229143   
H   0.6908566589219702   0.05293310897485994   -0.05776525281362697   
H   0.6455565613297776   0.05167415498908629   0.06006695716038579   
H   0.6001997628453247   -0.04038385955892853   -0.025984394686186133   
C   0.6666666666666666   0.0   0.0   
H   0.23594827331288193   0.6539729232969423   0.5419859743659828   
H   0.14126044734807858   0.737045593179155   0.5335443722040503   
H   0.09850940219209071   0.6214810677859313   0.5060616117337124   
H   0.18445192419582518   0.6789000185583445   0.42089295922742287   
C   0.16666666666666666   0.6666666666666666   0.5   
H   0.6310675165245698   0.0012978256665599067   0.592809301824845   
H   0.7457822795233063   0.003858156850985127   0.6454598608791423   
H   0.6677466585705026   -0.064140900807426   0.7177418332819394   
H   0.6461162198866136   0.067680515352375   0.7081506534863471   
C   0.6666666666666666   0.0   0.6666666666666666   
H   0.524921785476842   0.6314029822951175   0.5697084740678514   
H   0.47943917021377724   0.741236683642722   0.5272113768554822   
H   0.4323964156504097   0.6465979691222244   0.4581562794957735   
H   0.5633470335753403   0.6728975667219882   0.4483064471584358   
C   0.5   0.6666666666666666   0.5   
H   0.5022336623717822   0.28777574306898424   0.2348092444385184   
H   0.566406609613068   0.38019185522504906   0.17754487007989014   
H   0.44372917221702324   0.39047507584861935   0.1495696088316587   
H   0.5108967469739352   0.28519285440474124   0.10118652175547925   
C   0.5   0.3333333333333333   0.16666666666666666   
H   0.46040850925140386   -0.061124088224614646   0.4623137441141782   
H   0.46352794100587363   -0.0012789908471701923   0.5734305609322176   
H   0.4934630291389357   0.07954263213928446   0.48118160825165046   
H   0.5791468393774307   -0.0197252196286946   0.5084016492929203   
C   0.5   0.0   0.5   
H   0.5142333333177435   0.8195146730009674   0.7462301698132916   
H   0.4189965859601573   0.8460316026493232   0.6677131149199006   
H   0.5058356225919101   0.7774211498947605   0.6069702058354375   
H   0.538193448643473   0.9021211187332498   0.6435713155290094   
C   0.5   0.8333333333333333   0.6666666666666666   
H   0.558876570445466   0.10959812367392816   0.3325427405529917   
H   0.5338264153698573   0.22404602511023688   0.2855078481658157   
H   0.4784931502043775   0.21181132563420024   0.398320327126337   
H   0.4326728013166794   0.13703801069246074   0.2970968152017977   
C   0.5   0.16666666666666666   0.3333333333333333   
H   0.7937383292672097   0.2224942103195742   0.6215067817424926   
H   0.8300747912824893   0.1016833453082924   0.6167623178319667   
H   0.8055880986032729   0.1336574207331662   0.7364125326112072   
H   0.9113998165094395   0.18976178597797067   0.6764714538744366   
C   0.8333333333333333   0.16666666666666666   0.6666666666666666   
H   0.190461501563269   -0.028582238286726607   0.4269195260658327   
H   0.21116593583214147   0.06871735289012323   0.5046513051062235   
H   0.18412593293249957   -0.034326264556005924   0.572393202490069   
H   0.08697548957417202   0.019126863631412618   0.4972845691103828   
C   0.16666666666666666   0.0   0.5   
H   -0.005384912890913316   0.4252331420451511   0.13342792649206   
H   -0.05899467138839896   0.4956577469117047   0.22345282492350155   
H   -0.02006474816702885   0.5701567298817928   0.129259002786585   
H   0.07281039934672472   0.508432731836433   0.20342845340811275   
C   0.0   0.5   0.16666666666666666   
H   0.4667747370664741   0.2626192648996694   0.4751103111261821   
H   0.4497983721096349   0.35275655550558943   0.5618581375510351   
H   0.4996592139870761   0.40349662384608453   0.4575630972737765   
H   0.5753327045110113   0.3193896149219984   0.5292309858130092   
C   0.5   0.3333333333333333   0.5   
H   0.5785242129097773   0.18410217361171888   0.682599189007693   
H   0.49718575865463693   0.08774685826035032   0.6887491952908675   
H   0.4664433608158477   0.16273476145529156   0.5919512982893933   
H   0.451611108591919   0.21067089333148967   0.7161240969234653   
C   0.5   0.16666666666666666   0.6666666666666666   
H   0.3007699287475822   0.7635628590565943   0.19487304510598208   
H   0.27503234395279363   0.8869586678219435   0.1878612962202386   
H   0.3434967631810999   0.8524246503588494   0.08757102524668037   
H   0.40219884201220096   0.8500415725391682   0.20792524929767428   
C   0.3333333333333333   0.8333333333333333   0.16666666666666666   
H   0.2648526243972775   0.35365869749035284   -0.04026370895953379   
H   0.35863501469457576   0.4071617983284868   0.025161018668405147   
H   0.40198634182860493   0.3047001560986899   -0.03450796675661928   
H   0.31417031591700106   0.2873113604500919   0.06510492269493777   
C   0.3333333333333333   0.3333333333333333   0.0   
H   0.5887142137352367   0.6412311768988431   -0.0005874741887342235   
H   0.6950343607024182   0.630246858177714   -0.06776994664598959   
H   0.7236264507098535   0.6439360521252303   0.05443157491750937   
H   0.6689733276013433   0.7480626156045291   -0.00965779454718315   
C   0.6666666666666666   0.6666666666666666   0.0   
H   0.25280561217600017   0.6821321219709847   0.6666656106235941   
H   0.3497686087055001   0.6717262027782719   0.5864907538158939   
H   0.367828708365868   0.5944984250129769   0.684714053781086   
H   0.3727058210438928   0.7265508906740599   0.706511128141161   
C   0.3333333333333333   0.6666666666666666   0.6666666666666666   
H   0.852002164515795   0.1804234544477433   0.06998201055918102   
H   0.8547498101490764   0.09640210711032988   -0.00628350704884637   
O   0.8333333333333333   0.16666666666666666   0.0   
H   0.8078211487757462   -0.01802726730917315   0.0998879099985361   
H   0.8563391196971163   -0.06578698017731674   0.19070961371172493   
O   0.8333333333333333   0.0   0.16666666666666666   
H   0.0303098417099601   0.20277363738582904   0.22334873111990333   
H   0.03345904323323041   0.19977664071079196   0.1099262197668375   
O   0.0   0.16666666666666666   0.16666666666666666   
H   0.6920764558721456   0.45334606345958245   0.8844509338980504   
H   0.5966026843618603   0.47766669769533865   0.8280875482215933   
O   0.6666666666666666   0.5   0.8333333333333333   
H   0.8839859533171434   0.8337889848536205   0.720233080959075   
H   0.868230087117679   0.7937076401605929   0.6152149680982739   
O   0.8333333333333333   0.8333333333333333   0.6666666666666666   
H   0.5663738649699622   0.8652518455637436   0.0033128380015516015   
H   0.4899037488505942   0.8303675417746503   -0.0729693501604388   
O   0.5   0.8333333333333333   0.0   
H   -0.0003206568730970802   -0.03238983732075864   -0.06622727449610688   
H   -0.041860768955291824   -0.04700276887268687   0.03838843589481887   
O   0.0   0.0   0.0   
H   0.40007458830296627   0.3615558306135242   0.6802442880351618   
H   0.34484603261455093   0.30208801990409095   0.6008909537199655   
O   0.3333333333333333   0.3333333333333333   0.6666666666666666   
H   0.465643514184675   0.5615497085503037   0.6450675572065014   
H   0.45923448898314956   0.4489187565575081   0.6325472301299638   
O   0.5   0.5   0.6666666666666666   
H   0.30796205593471015   -0.05728233736435968   0.29447090444737767   
H   0.3619668597407755   0.04142163534633337   0.27948516195873735   
O   0.3333333333333333   0.0   0.3333333333333333   
H   0.9015812936592584   -0.021185963763844854   0.4818719245250315   
H   0.7943115145195895   -0.057860008399087476   0.4762350393603726   
O   0.8333333333333333   0.0   0.5   
H   0.7117505325471463   0.292958023339731   0.2912318410810437   
H   0.6730762077948457   0.2981779804004339   0.3978180230849916   
O   0.6666666666666666   0.3333333333333333   0.3333333333333333   
H   -0.027314508584036487   0.8165663310386828   0.433606916591094   
H   -0.05608388909797434   0.8130704969749785   0.5433505607349988   
O   0.0   0.8333333333333333   0.5   
H   0.2900646873502349   0.4642761044759278   0.45217862577201867   
H   0.3097548115527637   0.47141479092493704   0.5637353544153973   
O   0.3333333333333333   0.5   0.5   
H   0.6500869786713902   0.7735274524303475   0.7935385243116111   
H   0.6398751138257985   0.8137795325839077   0.8991749451172568   
O   0.6666666666666666   0.8333333333333333   0.8333333333333333   
H   0.14034805728320227   0.3822512702734534   0.21513957162728584   
H   0.2053362110663538   0.2892680583564112   0.21136760789620931   
O   0.16666666666666666   0.3333333333333333   0.16666666666666666   
H   0.7173475384811314   0.014269072494779397   0.28172811003236614   
H   0.7012854740261407   0.024538557113805395   0.3936214222187699   
O   0.6666666666666666   0.0   0.3333333333333333   
H   0.8103737613558609   0.8814963151241946   0.3842100618966224   
H   0.8672423154270676   0.7836148292911975   0.37591863078277116   
O   0.8333333333333333   0.8333333333333333   0.3333333333333333   
H   0.02917515795466695   0.6076724238220998   -0.03322266905585211   
H   -0.02843264003815618   0.6355918964867012   0.06050784997338059   
O   0.0   0.6666666666666666   0.0   
H   0.13682929354456844   0.77184698090159   0.6390185944103535   
H   0.1456070104607387   0.8282359753004663   0.7371348445290965   
O   0.16666666666666666   0.8333333333333333   0.6666666666666666   
H   0.9040201795018076   0.6755325670433531   0.147692424680667   
H   0.8403729819368789   0.6225924356913968   0.2253451276311068   
O   0.8333333333333333   0.6666666666666666   0.16666666666666666   
H   -0.03181261892354969   -0.01074164313419547   0.2676992671048818   
H   -0.006061795327047938   -0.06737931608148463   0.36263416389293573   
O   0.0   0.0   0.3333333333333333   
H   -0.06940691821025499   -0.013404623533177049   0.6457321964759278   
H   0.0006552206741118425   -0.03201470524178791   0.7330736362092366   
O   0.0   0.0   0.6666666666666666   
H   0.18402497950675767   0.11211380291569442   0.046453528408416454   
H   0.2338138752235728   0.18796765597357182   -0.0217434244598367   
O   0.16666666666666666   0.16666666666666666   0.0   
H   0.47843441687601157   0.3785441020957078   0.8874274021589965   
H   0.45357930484285   0.35320085825052   0.7796150237501932   
O   0.5   0.3333333333333333   0.8333333333333333   
H   -0.038004796824991326   0.894041057154233   0.1491891394830328   
H   -0.05212960141983848   0.7939538073214746   0.20082825118156128   
O   0.0   0.8333333333333333   0.16666666666666666   
H   0.8037789133890707   0.10923602968084008   0.36887928200316833   
H   0.7897686810226403   0.1698524915476474   0.27394286390806   
O   0.8333333333333333   0.16666666666666666   0.3333333333333333   
H   0.36327272106926645   0.5646229466042743   0.8142869661244209   
H   0.3657656767459888   0.4886219282070722   0.8985555600104157   
O   0.3333333333333333   0.5   0.8333333333333333   
H   0.13849018007849057   0.717698632996054   0.21180069247625702   
H   0.1348849512078202   0.6857550826567783   0.10294217210484585   
O   0.16666666666666666   0.6666666666666666   0.16666666666666666   
H   0.8612606560143102   0.4618722723862601   0.7232493257113174   
H   0.7850423436809294   0.5432077774090964   0.7018280739114793   
O   0.8333333333333333   0.5   0.6666666666666666   
H   0.3055580266399115   0.3248170770027082   0.4010921850493682   
H   0.321849498353729   0.4053960016115115   0.3228285894302851   
O   0.3333333333333333   0.3333333333333333   0.3333333333333333   
H   0.34923766004629286   0.2044094497574901   0.10536584296873697   
H   0.34565117113695143   0.218149529298007   0.21797984233144554   
O   0.3333333333333333   0.16666666666666666   0.16666666666666666   
H   0.7934993824342442   -0.04796432759756363   0.7939895167472326   
H   0.8678496237545692   0.03655204142177438   0.7794090323815737   
O   0.8333333333333333   0.0   0.8333333333333333   
H   0.12113718624986011   0.6214462612602084   0.8696298568242871   
H   0.14676578386514028   0.7317366933851636   0.8617076660347761   
O   0.16666666666666666   0.6666666666666666   0.8333333333333333   
H   0.31573972870352485   0.14571705894685805   0.5684604651035492   
H   0.2983332336756006   0.2314372002767355   0.4961234977758448   
O   0.3333333333333333   0.16666666666666666   0.5   
H   0.6998572737528734   0.5524299010434842   0.12685780650341083   
H   0.6551622574857441   0.4487815481042986   0.11490205496635746   
O   0.6666666666666666   0.5   0.16666666666666666   
H   0.8367448440863126   0.5669316197738369   0.30261239359329606   
H   0.8279076515738917   0.5179626921052897   0.40462961612180687   
O   0.8333333333333333   0.5   0.3333333333333333   
H   0.27259995265805637   0.20791726103403207   0.826617590204748   
H   0.32441070515032616   0.1402399616646665   0.9015775436278574   
O   0.3333333333333333   0.16666666666666666   0.8333333333333333   
H   0.6866409431926584   0.4020826755113265   -0.017601491329844357   
H   0.721139169085395   0.314651974420711   0.04603270119271274   
O   0.6666666666666666   0.3333333333333333   0.0   
H   0.6919971720595569   0.26419935720138   0.6629096584945401   
H   0.709805936937906   0.3664051045213031   0.6168618719112047   
O   0.6666666666666666   0.3333333333333333   0.6666666666666666   
H   0.43711967910057015   -0.03392519507393609   0.8515103147234947   
H   0.47421776617867256   0.05524461196790503   0.7918777482165343   
O   0.5   0.0   0.8333333333333333   
H   0.2098564848470644   0.03352408984744102   0.8827907015925022   
H   0.09995529737337282   0.01712227286578692   0.8596330909101907   
O   0.16666666666666666   0.0   0.8333333333333333   
H   0.650043625720786   0.8745605722009676   0.5588153513526933   
H   0.6490324520723   0.8796611502970666   0.4454287243992518   
O   0.6666666666666666   0.8333333333333333   0.5   
H   0.5174407796273658   0.765513511184236   0.31027802593280945   
H   0.5330198053519871   0.874237734647618   0.2816440822523302   
O   0.5   0.8333333333333333   0.3333333333333333   
H   -0.012259494238087053   0.3757892924029388   0.059012308971810784   
H   -0.014230383566677421   0.3810663012322047   -0.05435362203927823   
O   0.0   0.3333333333333333   0.0   
H   0.16932936853568747   0.09312183955125244   0.6710626526765069   
H   0.22361152343337853   0.1797264816217079   0.6217002259487611   
O   0.16666666666666666   0.16666666666666666   0.6666666666666666   
H   0.6549214114274987   0.7161374699957085   0.3867182082233639   
H   0.5991547802910371   0.661827327969597   0.3041103583195314   
O   0.6666666666666666   0.6666666666666666   0.3333333333333333   
H   0.1497093161777326   -0.01139513063691549   0.09582984339062442   
H   0.10026357132527101   0.01650367474212236   0.19411687465797187   
O   0.16666666666666666   0.0   0.16666666666666666   
%ENDBLOCK positions_frac

